********************************************************************************
Field Output Report, written Wed Nov 18 10:45:53 2020

Source 1
---------

   ODB: C:/Users/trin3150/Documents/Abaqus/liltemp/nanoindenter_std-1.odb
   Step: nanoindenter
   Frame: Increment      2: Frequency =   2.0000E+04
   Complex: Real

Loc 1 : Nodal values from source 1

Output sorted by column "Node Label".

Field Output reported at nodes for part: INST-1
   Computation algorithm: EXTRAPOLATE_COMPUTE_AVERAGE
   Averaged at nodes
   Averaging regions: ODB_REGIONS

      Node Label  COORD.Magnitude     COORD.COOR1     COORD.COOR2     COORD.COOR3         S.Mises           S.S11           S.S22           S.S33           S.S12           S.S13           S.S23
                          @Loc 1          @Loc 1          @Loc 1          @Loc 1          @Loc 1          @Loc 1          @Loc 1          @Loc 1          @Loc 1          @Loc 1          @Loc 1
--------------------------------------------------------------------------------------------------------------------------------------------------------------------------------------------------
               3     503.751E-06    -485.296E-06     51.2632E-06     125.000E-06        No Value        No Value        No Value        No Value        No Value        No Value        No Value
              17     600.686E-06    -585.296E-06     51.2632E-06     125.000E-06        No Value        No Value        No Value        No Value        No Value        No Value        No Value
              22        No Value        No Value        No Value        No Value     168.598E+06    -100.709E+06    -89.3372E+06    -5.16847E+06     79.9318E+06     18.3175E+06    -5.18888E+06
              25        No Value        No Value        No Value        No Value     55.2668E+06    -37.8239E+06    -63.1326E+06     251.997E+03    -3.43575E+03    -207.423E+03        -18.2510
              31        No Value        No Value        No Value        No Value     168.617E+06    -100.718E+06    -89.3463E+06    -5.16905E+06    -79.9406E+06     18.3203E+06     5.18966E+06
              34        No Value        No Value        No Value        No Value     99.9209E+06    -100.521E+06    -1.21497E+06     2.62248E+03    -4.41791E+03     217.918E+03         2.13306
              35        No Value        No Value        No Value        No Value     102.005E+06    -102.003E+06    -17.0882E+03     13.5406E+03     201.781E+03     412.572E+03    -3.76389E+03
              37        No Value        No Value        No Value        No Value     102.006E+06    -102.005E+06    -17.1433E+03     13.5158E+03    -202.763E+03     411.880E+03     3.76251E+03
              39        No Value        No Value        No Value        No Value     131.475E+06    -123.451E+06     14.5160E+06     378.064E+03     28.7662E+03    -463.274E+03    -7.74937E+03
              42        No Value        No Value        No Value        No Value     196.903E+06    -173.818E+06    -33.3112E+06    -17.7739E+06     71.8309E+06     18.5902E+06    -5.43230E+06
              43        No Value        No Value        No Value        No Value     195.534E+06    -173.509E+06    -37.7540E+06    -16.7814E+06    -72.0189E+06     17.2581E+06     4.59296E+06
            1076        No Value        No Value        No Value        No Value     128.395E+06    -89.8816E+06    -63.2227E+06    -20.0101E+06     54.6894E+06     33.5307E+06    -11.6856E+06
            1157        No Value        No Value        No Value        No Value     79.2933E+06    -27.4097E+06    -70.2895E+06     1.31649E+06     28.0605E+06    -1.80847E+06     411.005E+03
            1158        No Value        No Value        No Value        No Value     62.5747E+06    -40.4947E+06    -65.7280E+06    -351.564E+03     14.7589E+06     248.651E+03     66.3744E+03
            1159        No Value        No Value        No Value        No Value     37.0420E+06    -26.5452E+06    -40.9368E+06     584.952E+03    -1.92439E+03     3.57418E+06        -367.473
            1409        No Value        No Value        No Value        No Value     79.3044E+06    -27.4083E+06    -70.2956E+06     1.31660E+06    -28.0667E+06    -1.80875E+06    -411.022E+03
            1410        No Value        No Value        No Value        No Value     62.5817E+06    -40.4947E+06    -65.7310E+06    -351.598E+03    -14.7658E+06     248.704E+03    -66.4061E+03
            1488        No Value        No Value        No Value        No Value     128.413E+06    -89.8935E+06    -63.2293E+06    -20.0132E+06    -54.6957E+06     33.5378E+06     11.6881E+06
            1493        No Value        No Value        No Value        No Value     68.0543E+06    -67.0185E+06    -825.226E+03    -12.1904E+03    -2.33313E+03     8.06966E+06    -860.535E-03
            1494        No Value        No Value        No Value        No Value     99.9894E+06    -100.543E+06    -1.12778E+06     4.01002E+03     422.911E+03     226.599E+03         365.624
            1495        No Value        No Value        No Value        No Value     100.383E+06    -100.791E+06    -848.559E+03     8.07156E+03     743.277E+03     243.025E+03        -358.688
            1496        No Value        No Value        No Value        No Value     70.4372E+06    -68.0209E+06        -778.492    -77.1251E+03     300.877E+03     10.6391E+06    -20.9525E+03
            1511        No Value        No Value        No Value        No Value     63.4743E+06    -42.5829E+06     20.7013E+06     2.91317E+06     10.8438E+06     2.23876E+06    -1.45880E+06
            1512        No Value        No Value        No Value        No Value     61.3315E+06    -60.9925E+06    -328.039E+03     475.857E+03     674.945E+03     1.15446E+06     276.510E+03
            1513        No Value        No Value        No Value        No Value     76.2637E+06    -75.7026E+06      953.63E+03     144.059E+03     343.498E+03     499.766E+03    -87.5007E+03
            1514        No Value        No Value        No Value        No Value     88.5772E+06    -88.6441E+06    -116.021E+03    -27.2214E+03    -109.130E+03     498.791E+03     17.6441E+03
            1515        No Value        No Value        No Value        No Value     91.7336E+06    -92.2562E+06    -1.06370E+06     7.95354E+03    -4.48890E+03     192.699E+03     414.673E-03
            1516        No Value        No Value        No Value        No Value     82.6174E+06    -84.1831E+06    -3.23746E+06     8.61517E+03    -4.57134E+03     136.245E+03        -3.37573
            1517        No Value        No Value        No Value        No Value     69.2679E+06    -74.6236E+06    -12.2333E+06    -90.3798E+03    -4.63495E+03     20.0211E+03        -7.06445
            1518        No Value        No Value        No Value        No Value     51.2320E+06    -58.9593E+06    -34.0019E+06    -35.3936E+03    -4.40491E+03    -7.91464E+03        -12.3320
            1519        No Value        No Value        No Value        No Value     63.4703E+06    -42.5810E+06     20.6994E+06     2.91280E+06    -10.8433E+06     2.23796E+06     1.45863E+06
            1520        No Value        No Value        No Value        No Value     61.3303E+06    -60.9914E+06    -327.967E+03     475.834E+03    -675.412E+03      1.1537E+06    -276.470E+03
            1521        No Value        No Value        No Value        No Value     76.2633E+06    -75.7023E+06     953.558E+03     144.041E+03    -343.984E+03     499.066E+03     87.4951E+03
            1522        No Value        No Value        No Value        No Value     88.5775E+06    -88.6445E+06    -116.016E+03    -27.2079E+03     108.645E+03     498.066E+03    -17.6402E+03
            1523        No Value        No Value        No Value        No Value     70.4353E+06    -68.0222E+06        -821.516    -77.2132E+03    -301.058E+03     10.6324E+06     21.0046E+03
            1534        No Value        No Value        No Value        No Value     99.9896E+06    -100.543E+06    -1.12793E+06     4.00675E+03    -431.139E+03     226.576E+03        -360.454
            1535        No Value        No Value        No Value        No Value     100.383E+06    -100.791E+06    -848.839E+03     8.07813E+03    -749.476E+03     242.984E+03         361.582
            1536        No Value        No Value        No Value        No Value     84.5214E+06    -80.1858E+06     7.31476E+06     752.830E+03    -4.89772E+03    -2.47270E+06     8.90359E+03
            1547        No Value        No Value        No Value        No Value     170.969E+06    -112.814E+06    -47.2585E+06    -20.3355E+06     58.8345E+06     47.4511E+06    -42.0469E+06
            1548        No Value        No Value        No Value        No Value     129.410E+06    -117.899E+06     13.5092E+06      4.8882E+06    -469.481E+03    -3.76130E+06     1.91320E+06
            1549        No Value        No Value        No Value        No Value     134.698E+06    -128.020E+06     12.4893E+06    -530.986E+03     4.34159E+06     199.812E+03     660.523E+03
            1550        No Value        No Value        No Value        No Value     114.595E+06    -114.576E+06    -222.298E+03     13.8397E+03     2.99718E+06     630.329E+03    -4.98602E+03
            1551        No Value        No Value        No Value        No Value     123.792E+06    -123.514E+06    -530.778E+03    -17.9274E+03     6.69735E+06     774.178E+03    -34.3055E+03
            1552        No Value        No Value        No Value        No Value     130.943E+06    -130.127E+06    -1.02552E+06    -6.23755E+03     10.7053E+06     905.462E+03    -67.7653E+03
            1553        No Value        No Value        No Value        No Value     136.116E+06    -134.549E+06    -1.79533E+06    -14.2973E+03     14.8455E+06     1.03601E+06    -107.048E+03
            1554        No Value        No Value        No Value        No Value     139.486E+06    -136.922E+06    -2.76603E+06     2.76144E+03     18.9314E+06     1.16948E+06    -149.239E+03
            1555        No Value        No Value        No Value        No Value     141.239E+06    -137.546E+06    -4.02190E+06    -66.2020E+03     22.8804E+06     1.32317E+06    -209.837E+03
            1556        No Value        No Value        No Value        No Value     142.171E+06    -136.977E+06    -5.14651E+06     236.889E+03     26.3828E+06     1.46108E+06    -213.176E+03
            1557        No Value        No Value        No Value        No Value     142.651E+06    -136.084E+06    -7.07716E+06    -556.406E+03     30.6148E+06     1.78089E+06    -480.088E+03
            1558        No Value        No Value        No Value        No Value     149.693E+06    -141.967E+06    -8.32675E+06     3.07987E+06     30.9185E+06     842.440E+03     245.105E+03
            1559        No Value        No Value        No Value        No Value     134.083E+06    -129.815E+06     8.33789E+06    -211.187E+03     3.04141E+03    -32.2729E+03         569.484
            1560        No Value        No Value        No Value        No Value     134.211E+06    -132.280E+06     3.82504E+06    -48.6342E+03    -1.59405E+03    -74.5342E+03        -31.4688
            1561        No Value        No Value        No Value        No Value     133.862E+06    -133.325E+06     1.09171E+06    -23.2491E+03    -3.15633E+03         81.4219           184.5
            1562        No Value        No Value        No Value        No Value     132.664E+06    -132.927E+06    -526.075E+03        -686.997    -1.43158E+03     46.8138E+03        -66.6938
            1563        No Value        No Value        No Value        No Value     130.268E+06    -131.031E+06    -1.53349E+06    -6.93656E+03    -2.90325E+03     91.8775E+03         5.85742
            1564        No Value        No Value        No Value        No Value     126.557E+06    -127.591E+06    -2.09294E+06    -2.05627E+03    -3.37811E+03     129.154E+03        -13.2676
            1565        No Value        No Value        No Value        No Value     121.455E+06    -122.614E+06    -2.35222E+06    -1.80664E+03    -3.86740E+03     164.201E+03     92.2852E-03
            1566        No Value        No Value        No Value        No Value     115.071E+06    -116.202E+06    -2.29647E+06    -1.16681E+03    -4.15013E+03     194.245E+03     342.896E-03
            1567        No Value        No Value        No Value        No Value     107.743E+06    -108.662E+06    -1.86552E+06     2.83493E+03    -4.31732E+03     214.803E+03         2.58313
            1586        No Value        No Value        No Value        No Value     114.596E+06    -114.577E+06    -222.383E+03     13.8447E+03    -2.99858E+06     629.636E+03     4.97416E+03
            1587        No Value        No Value        No Value        No Value     123.793E+06    -123.514E+06    -530.948E+03    -17.9431E+03    -6.69859E+06     773.463E+03     34.2597E+03
            1588        No Value        No Value        No Value        No Value     130.944E+06    -130.127E+06    -1.02563E+06    -6.24527E+03    -10.7063E+06     904.833E+03     67.7852E+03
            1589        No Value        No Value        No Value        No Value     136.115E+06    -134.548E+06    -1.79593E+06    -14.1798E+03    -14.8462E+06     1.03508E+06     106.680E+03
            1590        No Value        No Value        No Value        No Value     139.483E+06    -136.918E+06    -2.76402E+06     2.31175E+03    -18.9311E+06     1.16992E+06     150.298E+03
            1591        No Value        No Value        No Value        No Value     141.229E+06    -137.539E+06    -4.03159E+06    -64.1818E+03    -22.8799E+06     1.31816E+06     205.528E+03
            1592        No Value        No Value        No Value        No Value     142.171E+06    -136.960E+06    -5.09513E+06     230.287E+03    -26.3766E+06     1.47535E+06     227.974E+03
            1593        No Value        No Value        No Value        No Value     142.546E+06    -136.080E+06    -7.30434E+06    -538.768E+03    -30.5988E+06     1.72643E+06     424.129E+03
            1594        No Value        No Value        No Value        No Value     150.096E+06    -141.873E+06    -7.25448E+06     3.08284E+06    -30.9754E+06     961.156E+03    -79.9647E+03
            1595        No Value        No Value        No Value        No Value     171.833E+06    -113.811E+06    -50.3500E+06    -22.4444E+06    -59.1653E+06     48.8391E+06     42.0016E+06
            1611        No Value        No Value        No Value        No Value     134.527E+06    -127.967E+06     12.2277E+06    -473.280E+03    -4.42671E+06     149.121E+03    -606.172E+03
            1612        No Value        No Value        No Value        No Value     130.118E+06    -117.835E+06     15.0210E+06     4.87518E+06     859.683E+03    -3.52634E+06    -1.75795E+06
            6045        No Value        No Value        No Value        No Value     48.8583E+06    -20.8428E+06    -43.3717E+06     4.53284E+06     12.7690E+06     7.29902E+06    -1.31072E+06
            6050        No Value        No Value        No Value        No Value     40.3443E+06    -29.3534E+06    -42.3724E+06    -605.043E+03     7.94711E+06     4.70180E+06    -707.621E+03
            7555        No Value        No Value        No Value        No Value     40.3480E+06    -29.3539E+06    -42.3740E+06    -605.078E+03    -7.95085E+06     4.70268E+06     707.036E+03
            7560        No Value        No Value        No Value        No Value     48.8641E+06    -20.8430E+06    -43.3750E+06     4.53347E+06    -12.7717E+06     7.30087E+06     1.31052E+06
            7565        No Value        No Value        No Value        No Value     68.1808E+06    -67.0053E+06    -777.831E+03    -13.2342E+03     727.170E+03     8.36139E+06     4.76230E+03
            7570        No Value        No Value        No Value        No Value     68.7603E+06    -67.1559E+06    -590.157E+03    -17.0981E+03     1.20830E+06     9.20299E+06    -37.7526E+03
            7579        No Value        No Value        No Value        No Value     91.5093E+06    -91.8619E+06    -737.389E+03     24.6819E+03     178.179E+03     206.440E+03     8.06490E+03
            7580        No Value        No Value        No Value        No Value     90.7396E+06    -90.7780E+06    -90.0149E+03     10.5428E+03     164.361E+03     205.421E+03    -6.72269E+03
            7581        No Value        No Value        No Value        No Value     82.3107E+06    -83.5181E+06    -2.42288E+06    -59.2375E+03    -597.741E+03     143.323E+03     11.3240E+03
            7582        No Value        No Value        No Value        No Value     80.4705E+06    -80.8599E+06    -743.418E+03    -54.7716E+03    -470.674E+03     162.692E+03    -6.58393E+03
            7583        No Value        No Value        No Value        No Value     71.3352E+06    -74.7051E+06    -8.30223E+06     268.320E+03    -3.42490E+06     97.9858E+03    -11.9019E+03
            7584        No Value        No Value        No Value        No Value     73.5807E+06    -73.8435E+06    -1.20696E+06    -190.079E+03    -3.89774E+06     42.5195E+03    -244.682E+03
            7585        No Value        No Value        No Value        No Value     57.0773E+06    -60.0945E+06    -30.9382E+06    -71.8462E+03    -13.5139E+06    -88.6317E+03     49.7438E+03
            7586        No Value        No Value        No Value        No Value     79.0478E+06    -73.1616E+06    -14.8448E+06    -647.525E+03    -23.7695E+06     449.113E+03     148.811E+03
            7591        No Value        No Value        No Value        No Value     62.8325E+06    -61.6345E+06    -480.595E+03    -46.0835E+03    -2.40546E+03     7.77514E+06        -24.8628
            7596        No Value        No Value        No Value        No Value     56.8440E+06    -56.4107E+06    -1.66673E+06    -112.466E+03    -2.48762E+03     6.99510E+06        -85.8660
            7601        No Value        No Value        No Value        No Value     47.9808E+06    -50.2434E+06    -7.32807E+06    -146.580E+03    -2.56190E+03     5.78683E+06        -177.177
            7606        No Value        No Value        No Value        No Value     35.7154E+06    -40.2376E+06    -21.5622E+06        -651.109    -2.46693E+03     4.43748E+06        -283.859
            7611        No Value        No Value        No Value        No Value     60.8915E+06    -58.0073E+06    -144.162E+03     82.8143E+03     126.757E+03     10.7453E+06     31.3929E+03
            7616        No Value        No Value        No Value        No Value     53.0993E+06    -47.7725E+06     784.443E+03     1.07256E+06     537.688E+03     12.2010E+06    -35.2976E+03
            7621        No Value        No Value        No Value        No Value     42.5053E+06    -34.2643E+06    -583.111E+03     196.270E+03     874.817E+03     14.5048E+06     759.781E+03
            7626        No Value        No Value        No Value        No Value     64.0437E+06    -19.2845E+06     14.9883E+06     15.6728E+06     11.7469E+06     26.4578E+06    -1.98083E+06
            7631        No Value        No Value        No Value        No Value     64.0315E+06    -19.2826E+06     14.9869E+06     15.6713E+06    -11.7455E+06     26.4507E+06     1.98034E+06
            7636        No Value        No Value        No Value        No Value     42.4979E+06    -34.2634E+06    -583.040E+03     196.396E+03    -874.673E+03     14.4982E+06    -759.661E+03
            7641        No Value        No Value        No Value        No Value     53.0942E+06    -47.7722E+06     784.365E+03     1.07252E+06    -537.527E+03     12.1942E+06     35.2837E+03
            7646        No Value        No Value        No Value        No Value     60.8882E+06    -58.0076E+06    -144.150E+03     82.8711E+03    -126.595E+03     10.7384E+06    -31.3932E+03
            7655        No Value        No Value        No Value        No Value     57.0707E+06    -60.0941E+06    -30.9368E+06    -71.8452E+03     13.5052E+06    -88.6363E+03    -49.7523E+03
            7656        No Value        No Value        No Value        No Value     71.3335E+06    -74.7045E+06    -8.30207E+06     268.291E+03     3.41632E+06     97.9648E+03     11.8889E+03
            7657        No Value        No Value        No Value        No Value     82.3103E+06    -83.5178E+06    -2.42284E+06     -59.227E+03     589.308E+03     143.303E+03    -11.3278E+03
            7658        No Value        No Value        No Value        No Value     91.5093E+06    -91.8619E+06    -737.464E+03     24.6814E+03    -186.517E+03     206.418E+03    -8.06325E+03
            7659        No Value        No Value        No Value        No Value     79.0389E+06    -73.1591E+06    -14.8435E+06    -647.474E+03     23.7616E+06     449.009E+03    -148.751E+03
            7660        No Value        No Value        No Value        No Value     73.5784E+06    -73.8422E+06    -1.20699E+06    -190.065E+03     3.89137E+06     42.4921E+03     244.665E+03
            7661        No Value        No Value        No Value        No Value     80.4701E+06    -80.8595E+06    -743.369E+03    -54.7674E+03     464.511E+03     162.654E+03     6.58979E+03
            7662        No Value        No Value        No Value        No Value     90.7398E+06    -90.7781E+06    -90.0942E+03     10.5402E+03    -170.560E+03     205.382E+03     6.72787E+03
            7667        No Value        No Value        No Value        No Value     68.1805E+06    -67.0054E+06    -777.931E+03    -13.2370E+03    -731.334E+03     8.36000E+06    -4.75266E+03
            7672        No Value        No Value        No Value        No Value     68.7593E+06    -67.1562E+06    -590.340E+03    -17.0842E+03    -1.21084E+06     9.19978E+06     37.7909E+03
            7673        No Value        No Value        No Value        No Value     85.4289E+06    -82.4397E+06     5.33842E+06    -739.888E+03     4.53251E+06    -643.299E+03    -2.92336E+06
            7678        No Value        No Value        No Value        No Value     77.1756E+06    -74.1762E+06    -1.44069E+06     4.36352E+06     5.04325E+06    -510.372E+03    -2.20121E+06
            7683        No Value        No Value        No Value        No Value     132.622E+06    -128.846E+06     6.51971E+06     500.338E+03     3.68228E+06    -488.832E+03    -160.319E+03
            7684        No Value        No Value        No Value        No Value     131.261E+06    -130.891E+06    -2.66525E+06    -867.710E+03     13.1075E+06     62.8050E+03    -167.555E+03
            7685        No Value        No Value        No Value        No Value     134.077E+06    -132.487E+06     2.72969E+06     58.7924E+03     3.94135E+06    -35.2661E+03    -3.09842E+03
            7686        No Value        No Value        No Value        No Value     135.891E+06    -134.597E+06    -806.692E+03     188.122E+03     11.8975E+06    -57.8460E+03     219.634E+03
            7687        No Value        No Value        No Value        No Value     134.126E+06    -133.812E+06     238.551E+03         197.744     4.17119E+06    -7.73829E+03    -36.6920E+03
            7688        No Value        No Value        No Value        No Value     135.794E+06    -135.374E+06    -1.73159E+06    -29.6179E+03     10.7753E+06    -10.9187E+03    -8.69115E+03
            7689        No Value        No Value        No Value        No Value     133.196E+06    -133.499E+06    -943.801E+03     8.65090E+03     3.78584E+06     60.2917E+03    -20.5955E+03
            7690        No Value        No Value        No Value        No Value     135.237E+06    -135.204E+06    -2.00266E+06     15.8616E+03     9.53171E+06     45.4552E+03     10.4128E+03
            7691        No Value        No Value        No Value        No Value     130.956E+06    -131.690E+06    -1.72427E+06     3.34499E+03     3.20364E+06     100.046E+03    -22.3197E+03
            7692        No Value        No Value        No Value        No Value     133.311E+06    -133.640E+06    -2.13869E+06     7.17804E+03     7.99612E+06     96.7572E+03    -15.1967E+03
            7693        No Value        No Value        No Value        No Value     127.336E+06    -128.320E+06    -2.14683E+06     3.62578E+03     2.50542E+06     140.522E+03    -19.5779E+03
            7694        No Value        No Value        No Value        No Value     129.909E+06    -130.507E+06    -2.14004E+06     9.29504E+03     6.25546E+06     142.642E+03    -17.2535E+03
            7695        No Value        No Value        No Value        No Value     122.247E+06    -123.354E+06    -2.32823E+06     3.74619E+03     1.76441E+06     175.256E+03    -16.9409E+03
            7696        No Value        No Value        No Value        No Value     124.846E+06    -125.624E+06    -2.06320E+06     8.81541E+03     4.42136E+06     183.002E+03    -16.4707E+03
            7697        No Value        No Value        No Value        No Value     115.740E+06    -116.837E+06    -2.26358E+06     4.27413E+03     1.09915E+06     204.808E+03    -11.9763E+03
            7698        No Value        No Value        No Value        No Value     118.077E+06    -118.921E+06    -1.91151E+06     14.7587E+03     2.68221E+06     215.526E+03    -8.50931E+03
            7699        No Value        No Value        No Value        No Value     108.152E+06    -109.056E+06    -1.85080E+06     5.52357E+03     648.804E+03     224.896E+03    -5.83968E+03
            7700        No Value        No Value        No Value        No Value     109.632E+06    -110.420E+06    -1.65798E+06     9.36965E+03     1.35233E+06     234.495E+03        -185.213
            7719        No Value        No Value        No Value        No Value     85.8942E+06    -84.1692E+06     3.22508E+06     138.335E+03     2.43720E+03    -277.628E+03    -2.66811E+03
            7724        No Value        No Value        No Value        No Value     86.6356E+06    -86.3159E+06     528.638E+03     7.71527E+03         434.844     1.69761E+06     2.01987E+03
            7729        No Value        No Value        No Value        No Value     87.1818E+06    -87.3831E+06    -867.455E+03     92.0124E+03    -1.71672E+03     3.25453E+06    -1.06876E+03
            7734        No Value        No Value        No Value        No Value     87.0915E+06    -87.4707E+06    -1.56158E+06     70.4284E+03        -274.688     4.53347E+06        -542.240
            7739        No Value        No Value        No Value        No Value     86.0592E+06    -86.4689E+06    -1.98283E+06     51.7607E+03    -1.20040E+03     5.54537E+06        -603.568
            7744        No Value        No Value        No Value        No Value     84.0823E+06    -84.3809E+06    -2.14901E+06     47.3698E+03    -1.54464E+03     6.38507E+06        -343.338
            7749        No Value        No Value        No Value        No Value     81.1495E+06    -81.2459E+06    -2.14516E+06     42.0385E+03    -1.89182E+03     7.08301E+06        -203.625
            7754        No Value        No Value        No Value        No Value     77.3551E+06    -77.1473E+06    -1.93385E+06     34.9047E+03    -2.10707E+03     7.63310E+06        -85.5337
            7759        No Value        No Value        No Value        No Value     72.9076E+06    -72.2904E+06    -1.46196E+06     22.5188E+03    -2.24105E+03     7.98959E+06        -21.3832
            7764        No Value        No Value        No Value        No Value     118.058E+06    -102.101E+06    -3.73938E+06    -4.25179E+06     26.7423E+06     26.7761E+06    -2.08480E+06
            7769        No Value        No Value        No Value        No Value     104.769E+06    -94.0048E+06    -6.40914E+06    -918.147E+03     22.6735E+06     19.4756E+06    -6.05780E+06
            7774        No Value        No Value        No Value        No Value     101.410E+06    -93.2338E+06    -3.83541E+06    -698.687E+03     19.3499E+06     16.8169E+06    -3.16049E+06
            7779        No Value        No Value        No Value        No Value     99.1895E+06    -92.7916E+06    -3.06713E+06    -348.241E+03     16.5354E+06     15.1993E+06    -2.79452E+06
            7784        No Value        No Value        No Value        No Value     97.1570E+06    -92.0856E+06    -2.07403E+06    -257.091E+03     13.6058E+06     14.1678E+06    -2.08441E+06
            7789        No Value        No Value        No Value        No Value     94.4282E+06    -90.3885E+06    -1.34553E+06    -198.275E+03     10.6771E+06     13.3527E+06    -1.59953E+06
            7794        No Value        No Value        No Value        No Value     90.7000E+06    -87.4431E+06    -768.623E+03    -187.887E+03     7.74753E+06     12.6413E+06    -1.13718E+06
            7799        No Value        No Value        No Value        No Value     85.7590E+06    -83.0692E+06    -392.645E+03    -199.287E+03     4.92560E+06     11.9552E+06    -729.016E+03
            7804        No Value        No Value        No Value        No Value     79.3587E+06    -77.0488E+06    -162.372E+03    -283.108E+03     2.30856E+06     11.2426E+06    -348.363E+03
            7809        No Value        No Value        No Value        No Value     79.3565E+06    -77.0494E+06    -162.396E+03    -283.010E+03    -2.30902E+06     11.2358E+06     348.256E+03
            7810        No Value        No Value        No Value        No Value     85.7566E+06    -83.0697E+06    -392.736E+03    -199.314E+03    -4.92592E+06     11.9484E+06      728.72E+03
            7811        No Value        No Value        No Value        No Value     90.6974E+06    -87.4430E+06    -768.469E+03    -187.574E+03    -7.74775E+06     12.6344E+06     1.13658E+06
            7812        No Value        No Value        No Value        No Value     94.4237E+06    -90.3877E+06    -1.34641E+06    -199.049E+03    -10.6769E+06     13.3461E+06     1.59897E+06
            7813        No Value        No Value        No Value        No Value     97.1524E+06    -92.0814E+06    -2.07037E+06    -253.042E+03    -13.6055E+06     14.1584E+06     2.08272E+06
            7814        No Value        No Value        No Value        No Value     99.1708E+06    -92.7873E+06    -3.08121E+06    -362.473E+03    -16.5329E+06     15.1978E+06     2.79483E+06
            7815        No Value        No Value        No Value        No Value     101.421E+06    -93.2102E+06    -3.77517E+06    -637.835E+03    -19.3465E+06     16.7778E+06     3.15216E+06
            7816        No Value        No Value        No Value        No Value     104.613E+06    -93.9979E+06    -6.63779E+06    -1.13201E+06    -22.6720E+06     19.5489E+06     6.06187E+06
            7817        No Value        No Value        No Value        No Value     118.517E+06    -102.191E+06    -2.92325E+06    -3.46163E+06    -26.7039E+06     26.3938E+06     2.03910E+06
            7854        No Value        No Value        No Value        No Value     77.7215E+06    -73.9414E+06    -235.580E+03     4.89539E+06    -5.05384E+06    -785.969E+03     2.12815E+06
            7859        No Value        No Value        No Value        No Value     85.2647E+06    -82.4361E+06     5.14000E+06    -849.401E+03    -4.49597E+06    -545.595E+03     2.97318E+06
            7864        No Value        No Value        No Value        No Value     109.632E+06    -110.421E+06    -1.65822E+06     9.36753E+03    -1.35852E+06     234.453E+03         195.343
            7865        No Value        No Value        No Value        No Value     118.077E+06    -118.921E+06    -1.91190E+06     14.7614E+03    -2.68827E+06     215.487E+03     8.51866E+03
            7866        No Value        No Value        No Value        No Value     124.846E+06    -125.623E+06    -2.06377E+06     8.80066E+03    -4.42697E+06     182.945E+03     16.4850E+03
            7867        No Value        No Value        No Value        No Value     129.908E+06    -130.506E+06    -2.14048E+06     9.35396E+03    -6.26032E+06     142.669E+03     17.2768E+03
            7868        No Value        No Value        No Value        No Value     133.308E+06    -133.637E+06    -2.13990E+06     6.94565E+03    -7.99978E+06     96.4079E+03     15.1613E+03
            7869        No Value        No Value        No Value        No Value     135.234E+06    -135.199E+06    -2.00021E+06     16.6337E+03    -9.53492E+06     46.6352E+03    -9.91962E+03
            7870        No Value        No Value        No Value        No Value     135.774E+06    -135.363E+06    -1.74842E+06    -32.8605E+03    -10.7765E+06    -15.0404E+03     6.73541E+03
            7871        No Value        No Value        No Value        No Value     135.920E+06    -134.583E+06    -746.658E+03     200.839E+03    -11.9197E+06    -44.0782E+03    -206.351E+03
            7872        No Value        No Value        No Value        No Value     130.935E+06    -130.793E+06    -3.08082E+06    -922.712E+03    -13.0858E+06     50.5898E+03     122.001E+03
            7873        No Value        No Value        No Value        No Value     108.152E+06    -109.056E+06    -1.85098E+06     5.52489E+03    -656.868E+03     224.870E+03     5.84577E+03
            7874        No Value        No Value        No Value        No Value     115.740E+06    -116.837E+06    -2.26381E+06     4.27190E+03    -1.10694E+06     204.781E+03     11.9795E+03
            7875        No Value        No Value        No Value        No Value     122.247E+06    -123.354E+06    -2.32851E+06     3.75064E+03    -1.77165E+06     175.230E+03     16.9431E+03
            7876        No Value        No Value        No Value        No Value     127.335E+06    -128.319E+06    -2.14717E+06     3.61655E+03    -2.51175E+06     140.475E+03     19.5698E+03
            7877        No Value        No Value        No Value        No Value     130.954E+06    -131.688E+06    -1.72453E+06     3.31948E+03    -3.20893E+06     100.100E+03     22.3007E+03
            7878        No Value        No Value        No Value        No Value     133.193E+06    -133.496E+06    -943.986E+03     8.97067E+03    -3.78854E+06     59.8736E+03     20.6066E+03
            7879        No Value        No Value        No Value        No Value     134.124E+06    -133.811E+06     235.684E+03    -1.47218E+03    -4.17342E+06    -6.17146E+03     36.3584E+03
            7880        No Value        No Value        No Value        No Value     134.057E+06    -132.466E+06     2.72777E+06     64.9240E+03    -3.91422E+06    -40.7960E+03     3.51570E+03
            7881        No Value        No Value        No Value        No Value     132.709E+06    -128.912E+06     6.56493E+06     488.679E+03    -3.70845E+06    -473.041E+03     154.578E+03
           22545        No Value        No Value        No Value        No Value     62.6268E+06    -61.2005E+06    -350.135E+03    -43.9234E+03     665.399E+03     8.14562E+06     270.969E+03
           22550        No Value        No Value        No Value        No Value     62.0280E+06    -59.9946E+06    -68.8694E+03    -67.4717E+03     938.503E+03     9.18972E+06     298.496E+03
           22555        No Value        No Value        No Value        No Value     56.4161E+06    -55.5319E+06    -1.26784E+06    -133.067E+03     461.015E+03     7.60278E+06     629.440E+03
           22560        No Value        No Value        No Value        No Value     54.7508E+06    -52.5795E+06    -405.260E+03    -163.584E+03     1.03998E+06     9.26794E+06     779.164E+03
           22565        No Value        No Value        No Value        No Value     48.8474E+06    -49.5944E+06    -4.88332E+06     152.970E+03    -817.695E+03     6.59495E+06     993.711E+03
           22570        No Value        No Value        No Value        No Value     49.3323E+06    -46.5311E+06    -797.427E+03     76.9277E+03    -197.576E+03     9.80925E+06     1.18914E+06
           22575        No Value        No Value        No Value        No Value     38.7548E+06    -40.7989E+06    -19.7557E+06     242.955E+03    -6.91888E+06     5.43192E+06     1.02021E+06
           22580        No Value        No Value        No Value        No Value     51.1072E+06    -48.0149E+06    -9.85380E+06    -1.10390E+06    -10.2305E+06     10.5378E+06     2.70385E+06
           22585        No Value        No Value        No Value        No Value     38.7514E+06    -40.7983E+06    -19.7549E+06     242.890E+03     6.91415E+06     5.43084E+06    -1.02067E+06
           22590        No Value        No Value        No Value        No Value     48.8462E+06    -49.5939E+06    -4.88331E+06     152.921E+03     813.179E+03     6.59374E+06    -994.001E+03
           22595        No Value        No Value        No Value        No Value     56.4154E+06    -55.5316E+06    -1.26786E+06    -133.068E+03    -465.395E+03     7.60147E+06    -629.576E+03
           22600        No Value        No Value        No Value        No Value     62.6263E+06    -61.2004E+06    -350.202E+03    -43.9259E+03    -669.677E+03     8.14427E+06    -271.001E+03
           22605        No Value        No Value        No Value        No Value     51.1014E+06    -48.0125E+06    -9.85301E+06    -1.10384E+06     10.2269E+06     10.5349E+06    -2.70387E+06
           22610        No Value        No Value        No Value        No Value     49.3294E+06    -46.5301E+06    -797.514E+03     76.8693E+03     194.869E+03     9.80621E+06    -1.18930E+06
           22615        No Value        No Value        No Value        No Value     54.7490E+06    -52.5792E+06    -405.268E+03    -163.594E+03    -1.04254E+06     9.26482E+06    -779.214E+03
           22620        No Value        No Value        No Value        No Value     62.0268E+06    -59.9947E+06    -68.9326E+03    -67.4768E+03    -941.068E+03     9.18654E+06    -298.496E+03
           22621        No Value        No Value        No Value        No Value     85.1005E+06    -83.7627E+06     1.50668E+06     176.709E+03     4.58723E+06     884.776E+03    -2.30302E+06
           22626        No Value        No Value        No Value        No Value     87.9191E+06    -84.9678E+06    -7.02258E+06     395.274E+03     15.3810E+06     6.47673E+06    -6.41932E+06
           22631        No Value        No Value        No Value        No Value     87.0590E+06    -86.5261E+06    -247.211E+03     252.452E+03     4.40530E+06     2.79494E+06    -1.80856E+06
           22636        No Value        No Value        No Value        No Value     91.4913E+06    -88.9502E+06    -2.87165E+06     335.858E+03     12.7695E+06     7.17431E+06    -3.13368E+06
           22641        No Value        No Value        No Value        No Value     87.9228E+06    -87.9112E+06    -1.38495E+06     57.7424E+03     4.36350E+06     4.23518E+06    -1.38455E+06
           22646        No Value        No Value        No Value        No Value     91.3056E+06    -89.5961E+06    -2.78405E+06     209.842E+03     10.7017E+06     7.50998E+06    -2.44223E+06
           22651        No Value        No Value        No Value        No Value     87.9103E+06     -88.008E+06    -1.79160E+06     84.2498E+03     3.78490E+06     5.27921E+06    -1.01834E+06
           22656        No Value        No Value        No Value        No Value     90.9619E+06    -89.6209E+06    -2.47929E+06     128.164E+03     9.12093E+06     7.88733E+06    -1.82762E+06
           22661        No Value        No Value        No Value        No Value      86.891E+06    -87.0299E+06    -2.05469E+06     56.4701E+03     3.16520E+06     6.14798E+06    -807.539E+03
           22666        No Value        No Value        No Value        No Value     89.8108E+06    -88.7098E+06    -2.25739E+06     98.2613E+03     7.56873E+06     8.25128E+06    -1.47290E+06
           22671        No Value        No Value        No Value        No Value     84.9160E+06    -84.9743E+06    -2.13037E+06     52.0021E+03     2.52009E+06     6.87337E+06    -649.416E+03
           22676        No Value        No Value        No Value        No Value     87.7567E+06    -86.7845E+06    -2.01444E+06     74.9994E+03     5.99088E+06     8.59905E+06    -1.18359E+06
           22681        No Value        No Value        No Value        No Value     81.9490E+06    -81.8407E+06    -2.07440E+06     45.7971E+03     1.87627E+06     7.48347E+06    -516.064E+03
           22686        No Value        No Value        No Value        No Value     84.6418E+06    -83.7000E+06    -1.76831E+06     64.0277E+03     4.41464E+06     8.88542E+06    -925.456E+03
           22691        No Value        No Value        No Value        No Value     78.0313E+06    -77.6614E+06    -1.86463E+06     38.7550E+03     1.30528E+06     7.96463E+06    -377.406E+03
           22696        No Value        No Value        No Value        No Value     80.3964E+06    -79.3854E+06    -1.51120E+06     50.2631E+03     2.94085E+06     9.08929E+06    -666.056E+03
           22701        No Value        No Value        No Value        No Value     73.3520E+06    -72.6108E+06    -1.42427E+06     18.8133E+03     907.131E+03     8.27803E+06    -210.307E+03
           22706        No Value        No Value        No Value        No Value     74.9637E+06    -73.7727E+06    -1.21746E+06     25.6820E+03     1.78106E+06     9.19413E+06    -378.720E+03
           22711        No Value        No Value        No Value        No Value     74.9630E+06    -73.7731E+06    -1.21756E+06     25.6830E+03    -1.78357E+06     9.19089E+06     378.691E+03
           22712        No Value        No Value        No Value        No Value     80.3955E+06    -79.3855E+06    -1.51134E+06     50.2641E+03    -2.94325E+06     9.08601E+06     665.891E+03
           22713        No Value        No Value        No Value        No Value     84.6405E+06    -83.6997E+06    -1.76851E+06     63.9969E+03    -4.41669E+06     8.88207E+06     925.105E+03
           22714        No Value        No Value        No Value        No Value     87.7548E+06    -86.7834E+06    -2.01454E+06     75.0446E+03    -5.99243E+06     8.59546E+06     1.18301E+06
           22715        No Value        No Value        No Value        No Value     89.8071E+06    -88.7074E+06    -2.25769E+06     97.7855E+03    -7.56913E+06     8.24784E+06     1.47186E+06
           22716        No Value        No Value        No Value        No Value     90.9580E+06    -89.6169E+06    -2.47770E+06     129.849E+03    -9.12107E+06     7.88176E+06     1.82633E+06
           22717        No Value        No Value        No Value        No Value     91.2896E+06    -89.5887E+06    -2.79022E+06     201.445E+03    -10.6967E+06     7.51092E+06     2.43954E+06
           22718        No Value        No Value        No Value        No Value     91.5134E+06    -88.9429E+06    -2.83932E+06     371.458E+03    -12.7743E+06     7.15190E+06     3.13082E+06
           22719        No Value        No Value        No Value        No Value     87.6660E+06    -84.8881E+06    -7.22443E+06     244.793E+03    -15.3182E+06     6.53116E+06     6.41931E+06
           22756        No Value        No Value        No Value        No Value     73.3517E+06    -72.6109E+06    -1.42438E+06     18.8137E+03    -911.142E+03     8.27662E+06     210.274E+03
           22757        No Value        No Value        No Value        No Value     78.0310E+06    -77.6614E+06    -1.86476E+06     38.7488E+03    -1.30907E+06     7.96318E+06     377.240E+03
           22758        No Value        No Value        No Value        No Value     81.9485E+06    -81.8404E+06    -2.07453E+06     45.7892E+03    -1.87965E+06     7.48197E+06     515.692E+03
           22759        No Value        No Value        No Value        No Value     84.9150E+06    -84.9736E+06    -2.13057E+06     51.9715E+03    -2.52282E+06     6.87180E+06     648.723E+03
           22760        No Value        No Value        No Value        No Value     86.8897E+06    -87.0288E+06    -2.05466E+06     56.4185E+03    -3.16712E+06     6.14619E+06     806.481E+03
           22761        No Value        No Value        No Value        No Value     87.9076E+06    -88.0054E+06    -1.79140E+06     84.3291E+03    -3.78530E+06     5.27791E+06     1.01680E+06
           22762        No Value        No Value        No Value        No Value     87.9227E+06    -87.9124E+06    -1.38603E+06     57.1455E+03    -4.36334E+06     4.23255E+06     1.38261E+06
           22763        No Value        No Value        No Value        No Value     87.0474E+06    -86.5130E+06    -240.516E+03     251.832E+03    -4.39178E+06     2.79924E+06     1.80700E+06
           22764        No Value        No Value        No Value        No Value     85.1843E+06    -83.8227E+06     1.52598E+06     197.232E+03    -4.61927E+06     878.559E+03     2.29716E+06
           58151        No Value        No Value        No Value        No Value     146.462E+06    -95.2951E+06    -76.2799E+06    -12.5893E+06     67.3106E+06     25.9241E+06    -8.43722E+06
           58158        No Value        No Value        No Value        No Value     119.258E+06    -63.6897E+06    -78.3994E+06    -1.49165E+06     54.8800E+06     7.62749E+06    -2.04916E+06
           58159        No Value        No Value        No Value        No Value     63.0226E+06    -24.1263E+06    -56.8306E+06     2.92466E+06     20.4148E+06     2.74528E+06    -449.858E+03
           58160        No Value        No Value        No Value        No Value     82.2263E+06    -54.6700E+06    -51.7418E+06    -7.16970E+06     33.4747E+06     19.7959E+06    -5.71844E+06
           58166        No Value        No Value        No Value        No Value     69.9734E+06    -34.0376E+06    -69.3620E+06     81.8586E+03     20.6469E+06    -256.568E+03     44.5457E+03
           58167        No Value        No Value        No Value        No Value      51.154E+06    -34.9241E+06    -54.0502E+06    -478.304E+03     11.3530E+06     2.47523E+06    -320.623E+03
           58168        No Value        No Value        No Value        No Value     45.3221E+06    -25.5164E+06    -44.2254E+06     1.46671E+06     10.5198E+06     6.55876E+06    -1.83483E+06
           58174        No Value        No Value        No Value        No Value     57.5618E+06    -39.4435E+06    -64.4910E+06    -83.5282E+03     7.09016E+06     124.284E+03    -121.824E+03
           58175        No Value        No Value        No Value        No Value     45.9662E+06    -32.1845E+06    -52.0347E+06     418.475E+03    -2.68041E+03     1.68338E+06        -192.859
           58176        No Value        No Value        No Value        No Value     38.2291E+06    -28.2231E+06    -41.8567E+06    -81.8037E+03     3.95412E+06     4.19857E+06    -259.537E+03
           69454        No Value        No Value        No Value        No Value     146.479E+06    -95.3059E+06    -76.2878E+06    -12.5911E+06    -67.3181E+06     25.9291E+06     8.43886E+06
           69514        No Value        No Value        No Value        No Value     63.0307E+06    -24.1257E+06    -56.8353E+06     2.92503E+06    -20.4192E+06     2.74606E+06     449.749E+03
           69516        No Value        No Value        No Value        No Value     82.2374E+06    -54.6760E+06    -51.7466E+06    -7.17086E+06    -33.4791E+06     19.8003E+06     5.71945E+06
           69517        No Value        No Value        No Value        No Value     119.272E+06    -63.6937E+06    -78.4069E+06    -1.49183E+06    -54.8876E+06     7.62867E+06     2.04950E+06
           69574        No Value        No Value        No Value        No Value     51.1592E+06    -34.9243E+06    -54.0525E+06    -478.338E+03    -11.3583E+06     2.47569E+06     320.315E+03
           69576        No Value        No Value        No Value        No Value     45.3270E+06    -25.5169E+06    -44.2279E+06     1.46693E+06    -10.5231E+06     6.56022E+06     1.83458E+06
           69577        No Value        No Value        No Value        No Value     69.9825E+06    -34.0369E+06    -69.3665E+06     81.8561E+03    -20.6533E+06    -256.601E+03    -44.5415E+03
           69607        No Value        No Value        No Value        No Value     38.2311E+06    -28.2234E+06    -41.8575E+06    -81.8206E+03    -3.95793E+06     4.19902E+06     258.876E+03
           69608        No Value        No Value        No Value        No Value     57.5654E+06    -39.4435E+06    -64.4925E+06    -83.5320E+03    -7.09701E+06     124.324E+03     121.807E+03
           69651        No Value        No Value        No Value        No Value     62.7144E+06    -61.4182E+06    -432.926E+03    -49.3954E+03     319.952E+03     7.95789E+06     139.077E+03
           69654        No Value        No Value        No Value        No Value     68.1261E+06    -67.0154E+06    -788.336E+03    -8.23091E+03     356.892E+03     8.21567E+06     2.60862E+03
           69656        No Value        No Value        No Value        No Value     65.4202E+06    -64.3063E+06    -665.479E+03    -22.1281E+03    -2.36910E+03     7.92249E+06        -12.8904
           69657        No Value        No Value        No Value        No Value     65.4031E+06    -64.1127E+06    -576.405E+03    -32.4319E+03     681.459E+03     8.25407E+06     138.405E+03
           69658        No Value        No Value        No Value        No Value     76.6022E+06    -76.5312E+06    -543.762E+03    -9.62076E+03     421.789E+03     4.17603E+06     139.517E+03
           69659        No Value        No Value        No Value        No Value     91.5960E+06    -92.0575E+06    -938.578E+03     6.65975E+03     71.1757E+03     198.381E+03     2.92773E+03
           69660        No Value        No Value        No Value        No Value     76.8629E+06    -76.9453E+06    -772.149E+03    -19.0650E+03    -3.44719E+03     3.98392E+06        -12.2239
           69661        No Value        No Value        No Value        No Value     83.5706E+06    -83.7696E+06    -1.02010E+06    -4.78396E+03    -3.37550E+03     4.14379E+06     636.230E-03
           69662        No Value        No Value        No Value        No Value     99.9695E+06    -100.535E+06    -1.15364E+06     9.13220E+03     206.015E+03     222.364E+03         850.601
           69663        No Value        No Value        No Value        No Value     83.6368E+06    -83.7742E+06    -952.804E+03    -4.61209E+03     575.041E+03     4.29399E+06     2.56396E+03
           69664        No Value        No Value        No Value        No Value     95.7899E+06    -96.3555E+06    -1.15770E+06     14.3057E+03    -4.45311E+03     205.488E+03         1.23169
           69665        No Value        No Value        No Value        No Value     95.7459E+06    -96.2111E+06    -950.689E+03     9.17932E+03     278.987E+03     216.301E+03     3.58443E+03
           69690        No Value        No Value        No Value        No Value     62.3129E+06    -60.6303E+06    -271.496E+03    -74.4279E+03     790.548E+03     8.67284E+06     290.270E+03
           69691        No Value        No Value        No Value        No Value     68.4738E+06    -67.0865E+06    -677.560E+03    -17.3813E+03     924.855E+03     8.78766E+06    -12.5376E+03
           69693        No Value        No Value        No Value        No Value     65.4046E+06    -63.6013E+06    -337.410E+03    -52.1042E+03     1.07252E+06     9.19758E+06     133.707E+03
           69694        No Value        No Value        No Value        No Value     75.7771E+06    -75.3863E+06    -79.4422E+03    -28.4644E+03     551.432E+03     4.69757E+06     145.886E+03
           69695        No Value        No Value        No Value        No Value     91.0993E+06    -91.3444E+06    -491.399E+03    -3.25869E+03     177.173E+03     216.331E+03     7.09271E+03
           69696        No Value        No Value        No Value        No Value     100.207E+06    -100.680E+06    -970.598E+03     4.86903E+03     552.444E+03     243.107E+03    -1.45898E+03
           69697        No Value        No Value        No Value        No Value     84.0302E+06    -83.9735E+06    -719.358E+03    -4.51325E+03     975.786E+03     4.72301E+06    -19.0557E+03
           69698        No Value        No Value        No Value        No Value     95.5835E+06    -95.8246E+06    -485.351E+03    -7.00052E+03     456.349E+03     224.611E+03    -6.82222E+03
           69723        No Value        No Value        No Value        No Value     61.4521E+06    -58.9675E+06    -26.9590E+03     30.7941E+03     575.229E+03     9.96481E+06     159.985E+03
           69724        No Value        No Value        No Value        No Value     69.5650E+06    -67.5791E+06    -315.095E+03    -49.3782E+03     806.313E+03     9.91541E+06    -33.4036E+03
           69726        No Value        No Value        No Value        No Value     65.5361E+06    -62.8560E+06    -15.0187E+03     40.7571E+03     183.286E+03     10.6831E+06     13.4943E+03
           69727        No Value        No Value        No Value        No Value     73.9191E+06    -73.3257E+06    -130.091E+03     27.7964E+03     8.81367E+03     5.62202E+06     24.5185E+03
           69728        No Value        No Value        No Value        No Value     89.7077E+06    -89.6882E+06     12.7109E+03     22.1899E+03     50.8592E+03     342.892E+03         253.820
           69729        No Value        No Value        No Value        No Value     101.155E+06    -101.380E+06    -468.127E+03     6.16096E+03     500.720E+03     319.396E+03    -1.32382E+03
           69730        No Value        No Value        No Value        No Value     85.5301E+06    -85.0121E+06    -8.93336E+03    -31.7923E+03     251.329E+03     5.52582E+06    -12.3582E+03
           69731        No Value        No Value        No Value        No Value     95.1360E+06    -95.0956E+06     15.7085E+03     58.5674E+03         914.031     457.373E+03     3.29967E+03
           69756        No Value        No Value        No Value        No Value     56.6425E+06    -55.9217E+06    -1.37710E+06    -74.1005E+03     245.333E+03     7.30213E+06     313.515E+03
           69758        No Value        No Value        No Value        No Value     59.7572E+06    -58.9624E+06    -1.12296E+06    -78.9457E+03    -2.44217E+03     7.39486E+06        -55.3296
           69759        No Value        No Value        No Value        No Value     59.4976E+06    -58.3664E+06    -847.339E+03     -90.251E+03     514.949E+03     7.87433E+06     444.646E+03
           69760        No Value        No Value        No Value        No Value     68.9017E+06    -69.5250E+06    -1.84536E+06    -96.1523E+03    -68.3633E+03     3.87305E+06     320.382E+03
           69761        No Value        No Value        No Value        No Value     82.4669E+06    -83.7893E+06    -2.74437E+06     25.4998E+03    -265.489E+03     142.146E+03     7.79708E+03
           69762        No Value        No Value        No Value        No Value     69.3521E+06    -70.2969E+06    -2.45210E+06    -51.9256E+03    -3.52947E+03     3.56567E+06        -44.6208
           69763        No Value        No Value        No Value        No Value     87.0509E+06    -88.1369E+06    -2.22399E+06     8.16284E+03    -4.52403E+03     162.064E+03        -1.21289
           69764        No Value        No Value        No Value        No Value     86.8553E+06    -87.6651E+06    -1.63068E+06    -15.2884E+03    -275.864E+03     172.443E+03     11.0710E+03
           69780        No Value        No Value        No Value        No Value     55.6395E+06    -54.0577E+06    -724.771E+03    -92.9306E+03     750.516E+03     8.44983E+06     669.087E+03
           69781        No Value        No Value        No Value        No Value     58.4036E+06    -56.3423E+06    -277.215E+03    -117.403E+03     992.478E+03     9.21689E+06     543.111E+03
           69782        No Value        No Value        No Value        No Value     66.8863E+06    -66.7197E+06    -574.339E+03    -109.178E+03     284.653E+03     4.71531E+06     386.290E+03
           69783        No Value        No Value        No Value        No Value     81.4857E+06    -82.1425E+06    -1.38030E+06     38.8742E+03    -442.520E+03     173.091E+03    -4.35375E+03
           69784        No Value        No Value        No Value        No Value     85.6212E+06    -85.8347E+06    -427.975E+03    -4.17806E+03    -183.507E+03     211.206E+03    -25.4812E+03
           69800        No Value        No Value        No Value        No Value     53.7246E+06    -50.2236E+06    -12.3715E+03     350.429E+03     755.601E+03     10.7168E+06     412.653E+03
           69801        No Value        No Value        No Value        No Value     56.8930E+06    -52.8820E+06     254.156E+03     474.887E+03     310.570E+03     11.5657E+06     21.9039E+03
           69802        No Value        No Value        No Value        No Value     63.4427E+06    -61.7376E+06     869.036E+03     608.309E+03     440.593E+03     6.35037E+06    -61.3991E+03
           69803        No Value        No Value        No Value        No Value     78.2498E+06    -78.3891E+06    -183.543E+03    -102.043E+03    -234.510E+03     308.780E+03    -43.3544E+03
           69804        No Value        No Value        No Value        No Value     82.3857E+06    -82.2302E+06     363.532E+03    -60.0521E+03     81.3791E+03     393.858E+03    -65.2165E+03
           69829        No Value        No Value        No Value        No Value     48.2412E+06    -49.8424E+06    -6.26441E+06    -23.7983E+03    -567.585E+03     6.19765E+06     475.169E+03
           69831        No Value        No Value        No Value        No Value     52.1559E+06    -53.1237E+06    -4.52765E+06    -72.9090E+03    -2.51355E+03     6.38514E+06        -130.583
           69832        No Value        No Value        No Value        No Value     52.6170E+06    -52.6177E+06    -3.08941E+06    -22.7378E+03    -349.733E+03     7.11472E+06     795.236E+03
           69833        No Value        No Value        No Value        No Value     59.6651E+06    -62.1498E+06    -6.59277E+06     210.645E+03    -2.12130E+06     3.34647E+06     490.905E+03
           69834        No Value        No Value        No Value        No Value     70.0177E+06    -74.5715E+06    -10.5166E+06     40.5612E+03    -1.91712E+06     55.9577E+03     5.01348E+03
           69835        No Value        No Value        No Value        No Value     58.3096E+06    -62.4335E+06    -9.78067E+06    -118.480E+03    -3.59839E+03     2.90342E+06        -92.1162
           69836        No Value        No Value        No Value        No Value     75.5512E+06    -79.1187E+06    -7.77927E+06     35.3528E+03    -4.58664E+03     88.3604E+03        -4.63672
           69837        No Value        No Value        No Value        No Value     76.7029E+06    -79.0952E+06    -5.36705E+06     95.1514E+03    -2.22319E+06     114.078E+03     2.25840E+03
           69853        No Value        No Value        No Value        No Value     48.5699E+06    -48.3046E+06    -3.83815E+06    -207.953E+03    -940.797E+03     8.16245E+06     1.23010E+06
           69854        No Value        No Value        No Value        No Value     51.7474E+06    -49.4137E+06    -845.327E+03     11.3574E+03     788.231E+03     9.50256E+06     982.358E+03
           69855        No Value        No Value        No Value        No Value     60.4829E+06    -60.1873E+06    -1.00219E+06    -56.5758E+03    -2.04766E+06     4.92588E+06     472.231E+03
           69856        No Value        No Value        No Value        No Value     71.6914E+06    -74.4256E+06    -6.20601E+06    -389.101E+03    -4.27506E+06     46.7057E+03     5.08956E+03
           69857        No Value        No Value        No Value        No Value     76.2623E+06    -76.9037E+06    -1.38792E+06    -27.8325E+03    -1.57276E+06     110.530E+03    -32.4712E+03
           69873        No Value        No Value        No Value        No Value     45.9328E+06    -40.2325E+06     466.215E+03     486.493E+03     883.894E+03     12.1899E+06     860.325E+03
           69874        No Value        No Value        No Value        No Value     47.8240E+06     -42.335E+06    -1.11453E+06     279.329E+03    -39.2157E+03     13.2724E+06     215.052E+03
           69875        No Value        No Value        No Value        No Value     49.6679E+06    -47.6284E+06    -455.575E+03     336.064E+03     774.881E+03     7.82963E+06     518.146E+03
           69876        No Value        No Value        No Value        No Value     68.2047E+06    -67.3595E+06     932.732E+03     619.516E+03    -897.774E+03     625.081E+03    -113.504E+03
           69877        No Value        No Value        No Value        No Value     68.3759E+06    -68.8654E+06    -1.17141E+06     108.514E+03    -750.753E+03     966.254E+03     90.1214E+03
           69902        No Value        No Value        No Value        No Value     36.6574E+06    -40.4257E+06    -20.4859E+06     157.725E+03    -3.25836E+06     4.99729E+06     531.306E+03
           69904        No Value        No Value        No Value        No Value     41.0992E+06    -45.2335E+06    -13.9100E+06     31.6643E+03    -2.51734E+03     5.06296E+06        -230.102
           69905        No Value        No Value        No Value        No Value      43.276E+06    -46.2850E+06    -12.3237E+06    -211.263E+03    -3.87110E+06     6.14534E+06     1.00832E+06
           69906        No Value        No Value        No Value        No Value     47.4908E+06    -50.4467E+06    -25.3470E+06     85.5542E+03    -10.2164E+06     2.67164E+06     534.977E+03
           69907        No Value        No Value        No Value        No Value     52.6938E+06    -59.4230E+06    -32.3080E+06    -16.9367E+03    -6.36394E+06     28.3417E+03    -19.1089E+03
           69908        No Value        No Value        No Value        No Value     43.2145E+06    -49.5984E+06    -27.7821E+06    -18.0223E+03    -3.43570E+03     2.21478E+06        -148.098
           69909        No Value        No Value        No Value        No Value     58.9839E+06    -66.7957E+06    -22.3246E+06     113.903E+03    -4.52584E+03     5.06775E+03        -11.8047
           69910        No Value        No Value        No Value        No Value     63.0634E+06    -69.1245E+06    -19.6183E+06    -493.759E+03    -8.43339E+06     33.4009E+03        -242.188
           69926        No Value        No Value        No Value        No Value     44.0371E+06    -43.8724E+06    -14.1995E+06     3.38325E+03    -8.36702E+06     8.25089E+06     1.27525E+06
           69927        No Value        No Value        No Value        No Value     45.9710E+06    -44.8359E+06    -5.86268E+06    -99.1016E+03    -3.10764E+06     9.86117E+06       2.147E+06
           69928        No Value        No Value        No Value        No Value     63.8008E+06    -60.5883E+06    -12.3493E+06    -875.712E+03    -17.0000E+06     5.49344E+06     1.42633E+06
           69929        No Value        No Value        No Value        No Value     65.7889E+06    -65.6679E+06    -22.3222E+06     187.183E+03    -17.6350E+06     442.241E+03     63.3879E+03
           69930        No Value        No Value        No Value        No Value     69.4724E+06    -70.8904E+06    -8.84893E+06    -36.6046E+03    -10.7707E+06     269.427E+03     17.5870E+03
           69946        No Value        No Value        No Value        No Value     50.8169E+06    -34.2767E+06     1.78895E+06     6.81400E+06     316.430E+03     18.1692E+06     940.044E+03
           69947        No Value        No Value        No Value        No Value     49.0191E+06    -27.5296E+06     3.31949E+06     5.93981E+06     1.54974E+06     21.2567E+06    -501.111E+03
           69948        No Value        No Value        No Value        No Value     58.3603E+06    -30.9337E+06     17.8448E+06     9.29297E+06     11.2953E+06     14.3483E+06    -1.71982E+06
           69949        No Value        No Value        No Value        No Value     62.7471E+06    -58.9363E+06     2.19691E+06     549.266E+03    -7.92783E+06     1.00532E+06    -575.991E+03
           69950        No Value        No Value        No Value        No Value     56.5115E+06    -54.8189E+06     4.38929E+06    -1.51533E+06     597.638E+03      29.979E+03    -730.251E+03
           69961        No Value        No Value        No Value        No Value     33.5884E+06    -33.6858E+06    -31.6787E+06     117.922E+03    -2.20881E+03     4.05299E+06        -327.174
           69962        No Value        No Value        No Value        No Value     36.1575E+06    -33.9267E+06    -30.9847E+06     260.562E+03    -7.19322E+06     4.92058E+06     884.058E+03
           69963        No Value        No Value        No Value        No Value     48.8391E+06    -48.7791E+06    -49.1963E+06    -150.881E+03    -3.93731E+03    -114.196E+03        -14.1367
           69964        No Value        No Value        No Value        No Value     54.4179E+06    -48.5996E+06    -48.2416E+06     391.779E+03    -13.8680E+06     61.1787E+03     7.76411E+03
           69970        No Value        No Value        No Value        No Value     44.9172E+06    -36.9292E+06    -25.7772E+06     1.25019E+06    -13.9768E+06     9.27684E+06     1.80093E+06
           69971        No Value        No Value        No Value        No Value     70.5288E+06    -53.2979E+06    -41.2943E+06    -151.513E+03    -29.5578E+06    -739.818E+03    -270.468E+03
           69977        No Value        No Value        No Value        No Value     74.3866E+06    -52.5453E+06    -18.9532E+06     282.045E+03    -15.9129E+06     29.2012E+06     4.86459E+06
           69978        No Value        No Value        No Value        No Value     80.9864E+06    -68.1206E+06    -26.9945E+06     2.38200E+06    -28.0359E+06     11.9131E+06     2.04277E+06
           69993        No Value        No Value        No Value        No Value     36.1539E+06    -33.9263E+06    -30.9835E+06     260.499E+03     7.18902E+06     4.91962E+06    -884.575E+03
           69995        No Value        No Value        No Value        No Value     36.6557E+06    -40.4254E+06    -20.4855E+06     157.693E+03     3.25355E+06     4.99675E+06    -531.821E+03
           69996        No Value        No Value        No Value        No Value     54.4109E+06    -48.5997E+06    -48.2394E+06     391.730E+03     13.8602E+06     61.1547E+03    -7.77880E+03
           69997        No Value        No Value        No Value        No Value     47.4860E+06    -50.4462E+06    -25.3459E+06     85.5223E+03     10.2097E+06     2.67110E+06    -535.211E+03
           69998        No Value        No Value        No Value        No Value     52.6904E+06    -59.4228E+06    -32.3073E+06    -16.9323E+03     6.35522E+06     28.3295E+03     19.0880E+03
           70013        No Value        No Value        No Value        No Value     43.2738E+06    -46.2843E+06    -12.3233E+06    -211.270E+03     3.86647E+06     6.14418E+06    -1.00869E+06
           70015        No Value        No Value        No Value        No Value     48.2406E+06    -49.8421E+06    -6.26438E+06    -23.8160E+03     562.747E+03     6.19704E+06    -475.494E+03
           70016        No Value        No Value        No Value        No Value     63.0595E+06    -69.1239E+06    -19.6175E+06    -493.702E+03     8.42470E+06     33.3817E+03         224.383
           70017        No Value        No Value        No Value        No Value     59.6637E+06    -62.1492E+06    -6.59269E+06     210.606E+03     2.11475E+06     3.34585E+06    -491.056E+03
           70018        No Value        No Value        No Value        No Value     70.0167E+06    -74.5712E+06    -10.5165E+06     40.5567E+03     1.90820E+06     55.9444E+03    -5.02764E+03
           70033        No Value        No Value        No Value        No Value     52.6160E+06    -52.6174E+06    -3.08941E+06    -22.7627E+03     345.267E+03     7.11345E+06    -795.450E+03
           70035        No Value        No Value        No Value        No Value     56.6421E+06    -55.9216E+06    -1.37713E+06    -74.1096E+03    -250.011E+03     7.30147E+06    -313.669E+03
           70036        No Value        No Value        No Value        No Value     76.7018E+06    -79.0948E+06    -5.36695E+06     95.1393E+03     2.21466E+06     114.058E+03    -2.26578E+03
           70037        No Value        No Value        No Value        No Value     68.9014E+06    -69.5248E+06    -1.84535E+06    -96.1475E+03     61.9566E+03     3.87239E+06    -320.452E+03
           70038        No Value        No Value        No Value        No Value     82.4667E+06    -83.7891E+06    -2.74438E+06     25.4944E+03     256.728E+03     142.132E+03    -7.80188E+03
           70053        No Value        No Value        No Value        No Value     59.4970E+06    -58.3662E+06    -847.376E+03    -90.2558E+03    -519.282E+03     7.87300E+06    -444.731E+03
           70055        No Value        No Value        No Value        No Value     62.7142E+06    -61.4182E+06    -432.959E+03    -49.3966E+03    -324.504E+03     7.95721E+06    -139.119E+03
           70056        No Value        No Value        No Value        No Value     86.8551E+06    -87.6650E+06    -1.63070E+06    -15.2881E+03     267.474E+03     172.422E+03    -11.0716E+03
           70057        No Value        No Value        No Value        No Value     76.6022E+06    -76.5312E+06    -543.833E+03    -9.62226E+03    -428.097E+03     4.17534E+06    -139.532E+03
           70058        No Value        No Value        No Value        No Value     91.5960E+06    -92.0575E+06    -938.613E+03     6.65994E+03    -79.8163E+03     198.366E+03    -2.92648E+03
           70073        No Value        No Value        No Value        No Value     65.4027E+06    -64.1127E+06    -576.488E+03    -32.4325E+03    -685.681E+03     8.25270E+06    -138.415E+03
           70075        No Value        No Value        No Value        No Value     68.1260E+06    -67.0154E+06    -788.386E+03    -8.23210E+03    -361.312E+03     8.21497E+06    -2.60451E+03
           70076        No Value        No Value        No Value        No Value     95.7460E+06    -96.2112E+06    -950.799E+03     9.18036E+03    -287.270E+03     216.278E+03    -3.58099E+03
           70077        No Value        No Value        No Value        No Value     83.6369E+06    -83.7743E+06    -952.929E+03    -4.61511E+03    -581.236E+03     4.29329E+06    -2.55655E+03
           70078        No Value        No Value        No Value        No Value     99.9696E+06    -100.535E+06    -1.15372E+06     9.13165E+03    -214.528E+03     222.348E+03        -846.258
           70093        No Value        No Value        No Value        No Value     44.9111E+06    -36.9276E+06    -25.7753E+06     1.24997E+06     13.9734E+06     9.27438E+06    -1.80108E+06
           70095        No Value        No Value        No Value        No Value     44.0325E+06    -43.8709E+06    -14.1988E+06     3.33669E+03     8.36290E+06     8.24883E+06    -1.27557E+06
           70096        No Value        No Value        No Value        No Value     70.5184E+06    -53.2971E+06    -41.2907E+06    -151.500E+03     29.5504E+06    -739.727E+03     270.481E+03
           70097        No Value        No Value        No Value        No Value     63.7940E+06    -60.5858E+06    -12.3482E+06    -875.656E+03     16.9942E+06     5.49194E+06    -1.42631E+06
           70098        No Value        No Value        No Value        No Value     65.7814E+06    -65.6665E+06    -22.3209E+06     187.179E+03     17.6269E+06     442.129E+03    -63.3869E+03
           70113        No Value        No Value        No Value        No Value     45.9673E+06    -44.8344E+06    -5.86232E+06    -99.1562E+03     3.10470E+06     9.85826E+06    -2.14705E+06
           70115        No Value        No Value        No Value        No Value     48.5679E+06    -48.3038E+06    -3.83807E+06    -207.967E+03     937.103E+03      8.1603E+06    -1.23029E+06
           70116        No Value        No Value        No Value        No Value     69.4678E+06    -70.8887E+06    -8.84826E+06    -36.6046E+03     10.7638E+06     269.363E+03    -17.5674E+03
           70117        No Value        No Value        No Value        No Value     60.4809E+06    -60.1862E+06    -1.00225E+06    -56.5974E+03     2.04312E+06     4.92435E+06    -472.318E+03
           70118        No Value        No Value        No Value        No Value     71.6892E+06    -74.4247E+06    -6.20578E+06    -389.053E+03     4.26757E+06     46.6594E+03    -5.09095E+03
           70133        No Value        No Value        No Value        No Value     51.7452E+06    -49.4131E+06    -845.350E+03     11.3157E+03    -790.818E+03     9.49949E+06    -982.461E+03
           70135        No Value        No Value        No Value        No Value     55.6384E+06    -54.0574E+06    -724.801E+03    -92.9425E+03    -754.020E+03     8.44758E+06    -669.186E+03
           70136        No Value        No Value        No Value        No Value     76.2612E+06    -76.9030E+06    -1.38786E+06    -27.8330E+03     1.56657E+06     110.498E+03     32.4771E+03
           70137        No Value        No Value        No Value        No Value     66.8857E+06    -66.7193E+06    -574.319E+03    -109.181E+03    -289.014E+03     4.71373E+06    -386.312E+03
           70138        No Value        No Value        No Value        No Value     81.4853E+06    -82.1422E+06    -1.38028E+06     38.8747E+03     435.291E+03     173.032E+03     4.35083E+03
           70153        No Value        No Value        No Value        No Value     58.4021E+06    -56.3422E+06    -277.241E+03    -117.409E+03    -995.035E+03     9.21374E+06    -543.135E+03
           70155        No Value        No Value        No Value        No Value     62.3121E+06    -60.6304E+06    -271.558E+03    -74.4310E+03    -793.998E+03     8.67054E+06    -290.286E+03
           70156        No Value        No Value        No Value        No Value     85.6211E+06    -85.8346E+06    -427.981E+03    -4.17635E+03     177.327E+03     211.164E+03     25.4855E+03
           70157        No Value        No Value        No Value        No Value     75.7770E+06    -75.3864E+06    -79.5135E+03    -28.4683E+03    -555.814E+03     4.69596E+06    -145.884E+03
           70158        No Value        No Value        No Value        No Value     91.0994E+06    -91.3445E+06    -491.469E+03    -3.25804E+03    -184.367E+03     216.269E+03    -7.08980E+03
           70173        No Value        No Value        No Value        No Value     65.4035E+06    -63.6014E+06    -337.538E+03    -52.1004E+03    -1.07508E+06     9.19438E+06    -133.690E+03
           70175        No Value        No Value        No Value        No Value     68.4732E+06    -67.0867E+06    -677.693E+03    -17.3745E+03    -928.249E+03     8.78533E+06     12.5592E+03
           70176        No Value        No Value        No Value        No Value     95.5838E+06    -95.8249E+06    -485.537E+03    -6.99944E+03    -462.551E+03     224.573E+03     6.82455E+03
           70177        No Value        No Value        No Value        No Value     84.0303E+06    -83.9738E+06    -719.590E+03    -4.50303E+03    -980.160E+03     4.72138E+06     19.0763E+03
           70178        No Value        No Value        No Value        No Value     100.207E+06    -100.681E+06    -970.801E+03     4.87249E+03    -559.597E+03     243.044E+03     1.46499E+03
           70193        No Value        No Value        No Value        No Value     74.3734E+06    -52.5385E+06    -18.9511E+06     282.587E+03     15.9110E+06     29.1942E+06    -4.86363E+06
           70195        No Value        No Value        No Value        No Value     50.8094E+06    -34.2745E+06     1.78873E+06     6.81334E+06    -317.617E+03     18.1642E+06    -940.216E+03
           70196        No Value        No Value        No Value        No Value     80.9780E+06    -68.1151E+06    -26.9915E+06     2.38171E+06     28.0323E+06     11.9111E+06    -2.04246E+06
           70197        No Value        No Value        No Value        No Value     58.3537E+06    -30.9318E+06     17.8431E+06     9.29204E+06    -11.2944E+06     14.3443E+06     1.71948E+06
           70198        No Value        No Value        No Value        No Value     62.7431E+06    -58.9341E+06     2.19668E+06     549.141E+03     7.92383E+06     1.00494E+06     575.963E+03
           70213        No Value        No Value        No Value        No Value     49.0088E+06    -27.5283E+06     3.31911E+06     5.93937E+06    -1.54945E+06     21.2497E+06     500.989E+03
           70215        No Value        No Value        No Value        No Value     45.9282E+06    -40.2315E+06     466.082E+03     486.482E+03    -885.075E+03     12.1851E+06    -860.369E+03
           70216        No Value        No Value        No Value        No Value     56.5096E+06    -54.8172E+06     4.38885E+06    -1.51517E+06    -598.016E+03     29.4115E+03     730.175E+03
           70217        No Value        No Value        No Value        No Value     49.6652E+06    -47.6274E+06    -455.503E+03     336.115E+03    -775.042E+03     7.82595E+06    -518.066E+03
           70218        No Value        No Value        No Value        No Value     68.2033E+06    -67.3583E+06     932.575E+03     619.454E+03     894.356E+03     624.718E+03     113.503E+03
           70233        No Value        No Value        No Value        No Value     47.8179E+06    -42.3343E+06    -1.11439E+06     279.413E+03     39.2792E+03     13.2657E+06    -215.013E+03
           70235        No Value        No Value        No Value        No Value     53.7214E+06    -50.2232E+06    -12.3852E+03     350.416E+03    -756.765E+03     10.7119E+06    -412.679E+03
           70236        No Value        No Value        No Value        No Value     68.3752E+06    -68.8646E+06    -1.17126E+06     108.506E+03     750.134E+03     965.501E+03    -90.1001E+03
           70237        No Value        No Value        No Value        No Value     63.4412E+06    -61.7372E+06     868.961E+03     608.282E+03    -440.755E+03     6.34664E+06     61.3894E+03
           70238        No Value        No Value        No Value        No Value     78.2494E+06    -78.3888E+06    -183.519E+03    -102.038E+03     231.090E+03     308.452E+03     43.3580E+03
           70253        No Value        No Value        No Value        No Value     56.8888E+06    -52.8819E+06     254.132E+03     474.905E+03    -310.413E+03     11.5589E+06    -21.9085E+03
           70255        No Value        No Value        No Value        No Value     61.4499E+06    -58.9677E+06    -26.9912E+03     30.8183E+03    -576.394E+03     9.95986E+06    -159.986E+03
           70256        No Value        No Value        No Value        No Value     82.3858E+06    -82.2302E+06     363.506E+03    -60.0485E+03    -81.8690E+03     393.165E+03     65.2118E+03
           70257        No Value        No Value        No Value        No Value     73.9186E+06    -73.3260E+06    -130.083E+03     27.8316E+03    -8.97531E+03     5.61826E+06    -24.5167E+03
           70258        No Value        No Value        No Value        No Value     89.7080E+06    -89.6885E+06     12.6623E+03     22.1923E+03    -54.2935E+03     342.551E+03        -248.747
           70273        No Value        No Value        No Value        No Value     65.5335E+06    -62.8567E+06    -15.0387E+03     40.7382E+03    -183.277E+03     10.6763E+06    -13.4716E+03
           70275        No Value        No Value        No Value        No Value     69.5636E+06    -67.5798E+06    -315.215E+03    -49.4160E+03    -807.636E+03     9.91049E+06     33.4511E+03
           70276        No Value        No Value        No Value        No Value     95.1370E+06    -95.0966E+06     15.6816E+03     58.5638E+03    -1.62481E+03     456.644E+03    -3.29971E+03
           70277        No Value        No Value        No Value        No Value     85.5308E+06    -85.0136E+06    -8.98244E+03    -31.8487E+03    -251.911E+03     5.52212E+06     12.3836E+03
           70278        No Value        No Value        No Value        No Value     101.156E+06    -101.381E+06    -468.305E+03     6.15081E+03    -504.389E+03     319.070E+03     1.32297E+03
           70279        No Value        No Value        No Value        No Value     133.148E+06    -125.953E+06     13.3552E+06    -122.081E+03     2.40845E+06    -31.3371E+03     331.530E+03
           70280        No Value        No Value        No Value        No Value     109.976E+06    -105.230E+06     8.91384E+06    -635.437E+03     4.43705E+06    -221.744E+03    -1.13142E+06
           70281        No Value        No Value        No Value        No Value     84.8702E+06    -81.6273E+06     5.94166E+06    -136.438E+03     2.35077E+06    -1.42697E+06    -1.55302E+06
           70282        No Value        No Value        No Value        No Value     107.964E+06    -101.819E+06     10.9154E+06     565.447E+03     11.9343E+03    -1.46799E+06         577.078
           70283        No Value        No Value        No Value        No Value     109.981E+06    -106.992E+06     5.78149E+06    -36.4257E+03     2.73929E+03    -154.950E+03    -1.04930E+03
           70284        No Value        No Value        No Value        No Value     85.4721E+06    -84.0929E+06     2.39224E+06     103.016E+03     2.18001E+06     391.899E+03    -1.09903E+06
           70285        No Value        No Value        No Value        No Value     108.792E+06    -106.305E+06     4.01320E+06     338.523E+03     4.13475E+06     197.972E+03    -1.23167E+06
           70286        No Value        No Value        No Value        No Value      133.44E+06    -129.478E+06     7.45617E+06     84.5234E+03     1.80766E+06    -190.739E+03    -97.4674E+03
           70287        No Value        No Value        No Value        No Value     85.3469E+06    -82.4485E+06     5.18375E+06     345.913E+03        -774.531    -1.31140E+06     3.95692E+03
           70288        No Value        No Value        No Value        No Value     133.033E+06    -127.041E+06     11.3146E+06    -63.4634E+03     12.3122E+03    -183.276E+03    -3.96919E+03
           70289        No Value        No Value        No Value        No Value     84.7024E+06    -82.4348E+06     3.55548E+06    -58.8593E+03     4.33681E+06    -77.7895E+03    -2.65799E+06
           70290        No Value        No Value        No Value        No Value     132.953E+06    -127.501E+06     9.76400E+06     321.355E+03     3.68897E+06    -326.770E+03     216.529E+03
           70331        No Value        No Value        No Value        No Value     132.196E+06    -125.136E+06     11.9816E+06     192.747E+03     6.98034E+06    -384.604E+03    -1.36318E+06
           70332        No Value        No Value        No Value        No Value     102.797E+06    -96.0376E+06     6.03423E+06     4.62586E+06     2.28688E+06    -2.13584E+06    -144.007E+03
           70333        No Value        No Value        No Value        No Value     82.8145E+06    -79.3825E+06     3.65382E+06     934.928E+03     6.87875E+06     784.926E+03    -3.54890E+06
           70334        No Value        No Value        No Value        No Value     87.0900E+06    -85.9166E+06    -1.56296E+06     129.809E+03     8.65863E+06     4.29423E+06    -3.72286E+06
           70335        No Value        No Value        No Value        No Value     108.827E+06    -107.929E+06    -4.84392E+06    -236.218E+03     14.2442E+06     3.26977E+06    -3.29344E+06
           70336        No Value        No Value        No Value        No Value     134.063E+06    -132.125E+06     3.00711E+06    -577.633E+03     7.76111E+06     551.148E+03     257.962E+03
           70337        No Value        No Value        No Value        No Value     81.7312E+06    -79.5906E+06    -4.24210E+06     2.45621E+06     10.5990E+06     3.28097E+06    -4.15948E+06
           70338        No Value        No Value        No Value        No Value     129.212E+06    -124.590E+06     5.10200E+06     1.94617E+06     6.71944E+06    -1.68029E+06     1.08292E+06
           70364        No Value        No Value        No Value        No Value     146.949E+06    -143.477E+06    -8.76621E+06    -4.42190E+06     30.1932E+06     5.91672E+06     996.060E+03
           70365        No Value        No Value        No Value        No Value     176.126E+06    -143.316E+06    -40.2848E+06    -19.0547E+06     65.3327E+06     33.0207E+06    -23.7396E+06
           70366        No Value        No Value        No Value        No Value     106.822E+06    -92.1133E+06    -25.6888E+06    -6.97241E+06     29.6055E+06     21.9771E+06    -21.0298E+06
           70367        No Value        No Value        No Value        No Value     100.320E+06    -91.8540E+06    -6.59647E+06    -1.71566E+06     22.5055E+06     15.9247E+06    -4.96272E+06
           70368        No Value        No Value        No Value        No Value     131.129E+06    -122.034E+06    -6.03307E+06    -585.964E+03     28.8304E+06     13.8093E+06    -919.846E+03
           70369        No Value        No Value        No Value        No Value     137.462E+06    -134.022E+06    -6.59480E+06     1.56300E+06     22.6780E+06    -381.544E+03    -383.392E+03
           70370        No Value        No Value        No Value        No Value     138.616E+06    -108.948E+06    -25.9549E+06    -12.5500E+06     42.8302E+06     36.8813E+06    -21.9878E+06
           70371        No Value        No Value        No Value        No Value     169.355E+06    -158.296E+06    -21.2868E+06    -7.29175E+06     50.0957E+06     9.11494E+06    -2.46841E+06
           70397        No Value        No Value        No Value        No Value     110.402E+06    -109.298E+06     2.17684E+06    -20.4595E+03        -579.637     811.538E+03         994.200
           70398        No Value        No Value        No Value        No Value     86.7166E+06    -86.3866E+06     126.148E+03     144.160E+03     2.28696E+06     2.27100E+06    -927.230E+03
           70399        No Value        No Value        No Value        No Value     110.485E+06    -109.506E+06     1.24124E+06     155.622E+03     4.17333E+06     1.37984E+06    -905.828E+03
           70400        No Value        No Value        No Value        No Value     134.062E+06    -132.353E+06     3.24868E+06     13.9192E+03     2.08196E+06    -23.3244E+03        -264.344
           70401        No Value        No Value        No Value        No Value     86.1142E+06    -85.0519E+06     1.94326E+06     138.489E+03            377.     641.341E+03    -1.07373E+03
           70402        No Value        No Value        No Value        No Value     133.938E+06    -130.763E+06     6.16606E+06    -31.8073E+03     1.55555E+03    -114.988E+03     1.01427E+03
           70403        No Value        No Value        No Value        No Value     86.5515E+06    -85.8050E+06     452.629E+03    -6.28853E+03     4.66755E+06     2.05631E+06    -2.00704E+06
           70404        No Value        No Value        No Value        No Value     133.932E+06    -131.560E+06     4.31333E+06    -47.6642E+03     4.06978E+06    -77.7896E+03    -42.8047E+03
           70430        No Value        No Value        No Value        No Value     88.5062E+06    -87.6760E+06    -2.03614E+06     78.4638E+03     8.49329E+06     5.02967E+06    -2.66062E+06
           70431        No Value        No Value        No Value        No Value     113.249E+06    -111.773E+06    -1.83917E+06     261.990E+03     12.3335E+06     3.55823E+06    -1.45702E+06
           70432        No Value        No Value        No Value        No Value     134.234E+06    -133.393E+06     256.954E+03    -133.263E+03     8.32945E+06    -8.65308E+03    -138.298E+03
           70433        No Value        No Value        No Value        No Value     89.3941E+06    -87.0395E+06    -4.88420E+06     275.724E+03     13.8750E+06     6.53526E+06    -4.93672E+06
           70434        No Value        No Value        No Value        No Value     133.527E+06    -132.660E+06    -1.39222E+06    -300.457E+03     12.2702E+06    -113.905E+03    -191.129E+03
           70450        No Value        No Value        No Value        No Value     97.6448E+06    -91.5748E+06    -4.15038E+06    -89.7946E+03     17.6527E+06     13.2552E+06    -4.38668E+06
           70451        No Value        No Value        No Value        No Value     122.137E+06    -115.045E+06    -6.74315E+06    -737.276E+03     26.6441E+06     10.6283E+06    -3.26894E+06
           70452        No Value        No Value        No Value        No Value     138.667E+06    -135.521E+06    -3.21077E+06     62.9993E+03     20.6275E+06     792.138E+03     109.482E+03
           70453        No Value        No Value        No Value        No Value     110.228E+06    -96.4744E+06    -4.23760E+06    -2.17066E+06     24.2665E+06     23.3089E+06    -4.13102E+06
           70454        No Value        No Value        No Value        No Value     146.599E+06    -138.192E+06    -6.73570E+06     1.49752E+06     31.8920E+06     1.72649E+06    -215.990E+03
           70470        No Value        No Value        No Value        No Value     110.463E+06    -110.354E+06     112.128E+03     34.3816E+03    -2.43652E+03     1.62731E+06        -442.138
           70471        No Value        No Value        No Value        No Value     87.5298E+06    -87.6861E+06    -1.06438E+06     77.3702E+03     2.14965E+06     3.77169E+06    -686.227E+03
           70472        No Value        No Value        No Value        No Value     110.905E+06    -110.862E+06    -573.201E+03     28.9701E+03     4.26734E+06     2.11372E+06    -710.622E+03
           70473        No Value        No Value        No Value        No Value     134.016E+06    -133.584E+06     755.385E+03     5.84578E+03     2.09452E+06     19.6108E+03    -13.8055E+03
           70474        No Value        No Value        No Value        No Value     86.8241E+06    -86.7400E+06    -144.727E+03     99.2697E+03        -244.938     2.48180E+06         469.555
           70475        No Value        No Value        No Value        No Value     133.933E+06    -132.664E+06     2.48269E+06     21.7992E+03            -1.5    -42.2712E+03        -253.234
           70476        No Value        No Value        No Value        No Value     87.5068E+06    -87.2171E+06    -771.619E+03     155.717E+03     4.44218E+06     3.49509E+06    -1.59966E+06
           70477        No Value        No Value        No Value        No Value     134.155E+06    -133.184E+06     1.52833E+06     19.5799E+03     4.12292E+06    -23.8427E+03    -25.0668E+03
           70503        No Value        No Value        No Value        No Value     89.4482E+06    -88.7309E+06    -1.93794E+06     155.408E+03     7.37872E+06      5.9977E+06    -1.88298E+06
           70504        No Value        No Value        No Value        No Value     113.170E+06    -112.485E+06    -2.25782E+06     90.1121E+03     10.7385E+06     3.74953E+06    -1.22546E+06
           70505        No Value        No Value        No Value        No Value     134.827E+06    -134.561E+06    -746.359E+03    -32.7846E+03     7.65946E+06     125.628E+03    -21.6695E+03
           70506        No Value        No Value        No Value        No Value     91.1927E+06    -89.1860E+06    -2.88626E+06     281.965E+03     11.5438E+06     7.34346E+06    -2.76779E+06
           70507        No Value        No Value        No Value        No Value     135.687E+06    -134.887E+06    -1.30718E+06     97.4913E+03     11.1735E+06    -86.6479E+03     122.029E+03
           70523        No Value        No Value        No Value        No Value     95.7610E+06    -91.3988E+06    -3.51762E+06    -268.539E+03     15.2075E+06     12.0114E+06    -2.84850E+06
           70524        No Value        No Value        No Value        No Value     120.634E+06    -115.105E+06    -4.49096E+06    -230.899E+03     22.8664E+06     9.13901E+06    -1.68683E+06
           70525        No Value        No Value        No Value        No Value     138.224E+06    -136.192E+06    -3.52920E+06     104.286E+03     18.3512E+06     566.546E+03    -113.131E+03
           70526        No Value        No Value        No Value        No Value     103.104E+06    -93.7317E+06    -5.52567E+06    -988.948E+03     21.4173E+06     18.1603E+06    -4.61182E+06
           70527        No Value        No Value        No Value        No Value     142.427E+06    -136.917E+06    -6.61091E+06    -447.535E+03     28.6033E+06     1.80412E+06    -361.636E+03
           70543        No Value        No Value        No Value        No Value     109.770E+06    -110.199E+06    -1.04383E+06     34.8707E+03        -853.137     2.29014E+06        -304.479
           70544        No Value        No Value        No Value        No Value     87.4294E+06    -87.7517E+06    -1.70092E+06     64.6574E+03     1.88687E+06     4.92070E+06    -514.837E+03
           70545        No Value        No Value        No Value        No Value     110.396E+06    -110.754E+06    -1.36770E+06     46.4504E+03     3.78537E+06     2.66975E+06    -519.467E+03
           70546        No Value        No Value        No Value        No Value     132.886E+06    -133.223E+06    -752.999E+03    -6.07866E+03     1.91483E+06     68.4580E+03    -14.2312E+03
           70547        No Value        No Value        No Value        No Value     87.1460E+06    -87.4565E+06    -1.22430E+06     65.6824E+03        -737.938     3.89535E+06        -899.422
           70548        No Value        No Value        No Value        No Value     133.274E+06    -133.149E+06     275.272E+03    -25.0072E+03    -1.89948E+03     27.4117E+03         21.2871
           70549        No Value        No Value        No Value        No Value     87.9153E+06    -87.9657E+06    -1.58962E+06     70.9589E+03     4.07113E+06     4.76170E+06    -1.20103E+06
           70550        No Value        No Value        No Value        No Value     133.662E+06    -133.654E+06    -348.664E+03     8.05298E+03     3.97875E+06     25.7698E+03    -28.1900E+03
           70576        No Value        No Value        No Value        No Value     89.3221E+06    -88.8350E+06    -2.10823E+06     92.5862E+03     6.36813E+06     6.66580E+06    -1.44116E+06
           70577        No Value        No Value        No Value        No Value     112.733E+06    -112.412E+06    -2.24098E+06     72.0127E+03     9.32632E+06     3.96639E+06    -908.604E+03
           70578        No Value        No Value        No Value        No Value     134.111E+06    -134.355E+06    -1.52737E+06    -19.9162E+03     6.82989E+06     136.119E+03    -39.3700E+03
           70579        No Value        No Value        No Value        No Value     91.1118E+06     -89.593E+06    -2.62170E+06     172.869E+03     9.91618E+06     7.68855E+06    -2.14316E+06
           70580        No Value        No Value        No Value        No Value     135.505E+06    -135.276E+06    -1.85527E+06    -3.14098E+03     10.1523E+06     19.1314E+03    -7.14292E+03
           70596        No Value        No Value        No Value        No Value     94.6891E+06    -91.1733E+06    -2.77649E+06    -83.8072E+03     12.8830E+06     11.4464E+06    -2.29194E+06
           70597        No Value        No Value        No Value        No Value     119.249E+06    -115.169E+06    -3.54451E+06    -207.222E+03     19.7079E+06     8.26124E+06    -1.50218E+06
           70598        No Value        No Value        No Value        No Value     137.729E+06    -136.362E+06    -2.94057E+06     16.9655E+03     15.9541E+06     586.204E+03    -64.5846E+03
           70599        No Value        No Value        No Value        No Value     100.265E+06    -92.9810E+06    -3.41895E+06    -499.899E+03     17.9218E+06     16.0349E+06    -2.98937E+06
           70600        No Value        No Value        No Value        No Value     141.730E+06    -137.296E+06    -4.57982E+06     81.7219E+03     24.6822E+06     1.39105E+06    -220.282E+03
           70616        No Value        No Value        No Value        No Value     108.004E+06    -108.750E+06    -1.75816E+06     22.4121E+03    -2.05182E+03     2.81862E+06        -298.863
           70617        No Value        No Value        No Value        No Value     86.4418E+06    -86.7563E+06    -2.00864E+06     53.9591E+03     1.57507E+06     5.86012E+06    -404.414E+03
           70618        No Value        No Value        No Value        No Value     108.720E+06    -109.360E+06    -1.88948E+06     29.9075E+03     3.18442E+06     3.12401E+06    -414.929E+03
           70619        No Value        No Value        No Value        No Value     130.596E+06    -131.365E+06    -1.61323E+06         419.469     1.61871E+06     109.504E+03    -10.8524E+03
           70620        No Value        No Value        No Value        No Value     86.5722E+06    -86.9698E+06    -1.76838E+06     61.8577E+03        -792.438     5.03878E+06        -561.336
           70621        No Value        No Value        No Value        No Value     131.466E+06    -131.976E+06    -1.02393E+06    -1.66380E+03    -2.18329E+03     68.3154E+03        -28.9141
           70622        No Value        No Value        No Value        No Value     87.3921E+06    -87.5159E+06    -1.92110E+06     69.7014E+03     3.47273E+06     5.71114E+06    -913.478E+03
           70623        No Value        No Value        No Value        No Value     132.077E+06    -132.597E+06    -1.33181E+06     3.91250E+03     3.49408E+06     80.5624E+03    -21.6313E+03
           70649        No Value        No Value        No Value        No Value     88.2874E+06    -87.8863E+06    -2.12440E+06     70.6410E+03     5.29571E+06     7.26808E+06    -1.13763E+06
           70650        No Value        No Value        No Value        No Value     111.185E+06    -111.175E+06    -2.19804E+06     52.7197E+03     7.78243E+06     4.17402E+06    -744.048E+03
           70651        No Value        No Value        No Value        No Value     132.077E+06    -132.673E+06    -1.94769E+06    -12.7769E+03     5.73253E+06     166.262E+03    -31.2359E+03
           70652        No Value        No Value        No Value        No Value     90.3724E+06    -89.1621E+06    -2.37156E+06     114.786E+03     8.34464E+06     8.07034E+06    -1.65037E+06
           70653        No Value        No Value        No Value        No Value     134.267E+06    -134.419E+06    -2.06999E+06     14.0656E+03     8.76261E+06     68.4806E+03    -2.06741E+03
           70669        No Value        No Value        No Value        No Value     93.2082E+06    -90.3743E+06    -2.20729E+06    -72.4794E+03     10.6541E+06     11.1276E+06    -1.78445E+06
           70670        No Value        No Value        No Value        No Value     117.470E+06    -114.504E+06    -2.42003E+06    -127.165E+03     16.2686E+06     7.66862E+06    -1.11682E+06
           70671        No Value        No Value        No Value        No Value     136.033E+06    -135.269E+06    -2.45155E+06     20.8629E+03     13.2809E+06     551.701E+03    -69.9437E+03
           70672        No Value        No Value        No Value        No Value     98.1492E+06    -92.4513E+06    -2.58640E+06    -309.544E+03     15.0853E+06     14.6882E+06    -2.43926E+06
           70673        No Value        No Value        No Value        No Value     140.325E+06    -137.245E+06    -3.40304E+06    -36.0437E+03     20.9029E+06     1.25202E+06    -179.299E+03
           70689        No Value        No Value        No Value        No Value     105.105E+06    -105.986E+06    -2.12097E+06     22.6567E+03    -2.46136E+03     3.25711E+06        -178.308
           70690        No Value        No Value        No Value        No Value     84.4785E+06    -84.6869E+06    -2.13908E+06     46.5360E+03     1.25260E+06     6.63968E+06    -325.589E+03
           70691        No Value        No Value        No Value        No Value     105.874E+06    -106.647E+06    -2.13860E+06     27.8139E+03     2.51276E+06     3.50694E+06    -334.497E+03
           70692        No Value        No Value        No Value        No Value     126.939E+06    -127.964E+06    -2.11390E+06        -692.956     1.26536E+06     145.389E+03    -10.4637E+03
           70693        No Value        No Value        No Value        No Value     85.0674E+06    -85.4259E+06    -2.06520E+06     49.1387E+03    -1.36556E+03     5.96443E+06        -475.453
           70694        No Value        No Value        No Value        No Value     128.414E+06    -129.311E+06    -1.81094E+06    -4.30121E+03    -3.13272E+03     110.312E+03        -4.15234
           70695        No Value        No Value        No Value        No Value     85.8997E+06    -86.0033E+06    -2.09219E+06     53.9682E+03     2.84308E+06     6.51019E+06    -728.848E+03
           70696        No Value        No Value        No Value        No Value     129.147E+06    -130.006E+06    -1.93393E+06     3.47236E+03     2.85512E+06     120.077E+03    -21.3076E+03
           70722        No Value        No Value        No Value        No Value     86.2996E+06    -85.8930E+06    -2.05541E+06     56.2163E+03     4.20002E+06     7.78780E+06    -914.903E+03
           70723        No Value        No Value        No Value        No Value     108.435E+06    -108.646E+06    -2.07724E+06     42.1472E+03     6.12317E+06     4.37085E+06    -600.422E+03
           70724        No Value        No Value        No Value        No Value     128.598E+06    -129.429E+06    -2.14975E+06    -8.00073E+03     4.48151E+06     192.604E+03    -29.2665E+03
           70725        No Value        No Value        No Value        No Value     88.7751E+06    -87.7477E+06    -2.13479E+06     86.7349E+03     6.78170E+06     8.42499E+06    -1.32920E+06
           70726        No Value        No Value        No Value        No Value     131.605E+06    -132.076E+06    -2.13863E+06     7.86740E+03     7.12675E+06     120.222E+03    -16.8778E+03
           70742        No Value        No Value        No Value        No Value     90.9142E+06    -88.5636E+06    -1.69765E+06    -51.2244E+03     8.38233E+06     10.9138E+06    -1.39470E+06
           70743        No Value        No Value        No Value        No Value     114.495E+06    -112.469E+06    -1.57043E+06    -106.286E+03     12.7613E+06     7.19433E+06    -853.288E+03
           70744        No Value        No Value        No Value        No Value     132.770E+06    -132.504E+06    -1.96745E+06     13.4052E+03     10.4045E+06     527.753E+03    -51.3381E+03
           70745        No Value        No Value        No Value        No Value     95.7642E+06    -91.2337E+06    -1.70547E+06    -223.864E+03     12.1410E+06     13.7627E+06    -1.84373E+06
           70746        No Value        No Value        No Value        No Value     137.766E+06    -135.738E+06    -2.27966E+06    -4.48513E+03     16.8911E+06     1.10233E+06    -129.316E+03
           70762        No Value        No Value        No Value        No Value     101.030E+06    -101.930E+06    -2.24869E+06     20.1159E+03    -2.87960E+03     3.62361E+06        -101.758
           70763        No Value        No Value        No Value        No Value     81.5435E+06    -81.5528E+06    -2.10623E+06     41.9658E+03     931.940E+03     7.29139E+06    -258.098E+03
           70764        No Value        No Value        No Value        No Value     101.794E+06    -102.597E+06    -2.20132E+06     24.7716E+03     1.82034E+06     3.82936E+06    -266.503E+03
           70765        No Value        No Value        No Value        No Value     121.857E+06    -122.995E+06    -2.33043E+06         572.006     892.179E+03     178.000E+03    -8.57974E+03
           70766        No Value        No Value        No Value        No Value     82.6136E+06    -82.8146E+06    -2.14568E+06     45.0514E+03    -1.72128E+03     6.73317E+06        -272.539
           70767        No Value        No Value        No Value        No Value     124.010E+06    -125.106E+06    -2.22061E+06    -1.94927E+03    -3.62414E+03     146.488E+03        -6.29199
           70768        No Value        No Value        No Value        No Value     83.4297E+06    -83.4094E+06    -2.10157E+06     48.7732E+03     2.19870E+06     7.17785E+06    -582.846E+03
           70769        No Value        No Value        No Value        No Value     124.795E+06    -125.842E+06    -2.23675E+06     2.61328E+03     2.13545E+06     157.911E+03    -18.3582E+03
           70795        No Value        No Value        No Value        No Value     83.2798E+06    -82.7802E+06    -1.90946E+06     48.0794E+03     3.10360E+06     8.22352E+06    -716.082E+03
           70796        No Value        No Value        No Value        No Value     104.317E+06    -104.662E+06    -1.91576E+06     36.4216E+03     4.41800E+06     4.53421E+06    -470.963E+03
           70797        No Value        No Value        No Value        No Value     123.545E+06    -124.508E+06    -2.19329E+06    -5.89215E+03     3.17036E+06     217.537E+03    -23.9950E+03
           70798        No Value        No Value        No Value        No Value     86.1899E+06    -85.2424E+06    -1.89096E+06     69.9837E+03     5.20439E+06     8.74239E+06    -1.05478E+06
           70799        No Value        No Value        No Value        No Value     127.372E+06    -128.067E+06    -2.10066E+06     9.35338E+03     5.33991E+06     162.681E+03    -17.1466E+03
           70815        No Value        No Value        No Value        No Value     87.5589E+06    -85.5523E+06    -1.28390E+06    -53.1362E+03     6.12169E+06     10.7161E+06    -1.03788E+06
           70816        No Value        No Value        No Value        No Value     110.095E+06    -108.785E+06    -897.072E+03    -97.0624E+03     9.22643E+06     6.77339E+06    -602.471E+03
           70817        No Value        No Value        No Value        No Value     127.739E+06    -127.847E+06    -1.55655E+06     13.8712E+03     7.45363E+06     497.549E+03    -35.2018E+03
           70818        No Value        No Value        No Value        No Value     92.5339E+06    -88.9123E+06    -1.05624E+06    -191.570E+03     9.21358E+06     12.9978E+06    -1.36873E+06
           70819        No Value        No Value        No Value        No Value     133.490E+06    -132.335E+06    -1.40880E+06    -8.62279E+03     12.7753E+06     971.016E+03    -87.8305E+03
           70835        No Value        No Value        No Value        No Value     95.8834E+06    -96.6748E+06    -2.11516E+06     16.8690E+03    -3.12860E+03     3.91367E+06        -42.5928
           70836        No Value        No Value        No Value        No Value     77.6978E+06    -77.4149E+06    -1.89398E+06     35.5011E+03     647.571E+03     7.80447E+06    -188.456E+03
           70837        No Value        No Value        No Value        No Value     96.5275E+06    -97.2491E+06    -2.06411E+06     21.5146E+03     1.20221E+06     4.08472E+06    -194.691E+03
           70838        No Value        No Value        No Value        No Value     115.421E+06    -116.532E+06    -2.26671E+06     2.09308E+03     556.691E+03     205.399E+03    -6.26524E+03
           70839        No Value        No Value        No Value        No Value     79.2495E+06    -79.1969E+06    -2.03858E+06     39.9147E+03    -1.99958E+03     7.35726E+06        -144.777
           70840        No Value        No Value        No Value        No Value     118.267E+06    -119.411E+06    -2.32385E+06        -980.674    -4.00922E+03     178.977E+03     164.063E-03
           70841        No Value        No Value        No Value        No Value     79.9894E+06    -79.7554E+06    -1.96955E+06     42.1819E+03     1.59073E+06     7.72334E+06    -446.647E+03
           70842        No Value        No Value        No Value        No Value     119.000E+06    -120.104E+06    -2.29690E+06     2.25257E+03     1.43121E+06     190.155E+03    -14.7514E+03
           70868        No Value        No Value        No Value        No Value     79.2141E+06    -78.5348E+06    -1.68219E+06     36.0054E+03     2.09505E+06     8.55535E+06    -516.365E+03
           70869        No Value        No Value        No Value        No Value     98.7771E+06    -99.1533E+06    -1.71135E+06     32.5109E+03     2.81153E+06     4.65241E+06    -337.283E+03
           70870        No Value        No Value        No Value        No Value     116.927E+06    -117.907E+06    -2.08285E+06    -4.17754E+03     1.95045E+06     238.345E+03    -16.7597E+03
           70871        No Value        No Value        No Value        No Value      82.511E+06    -81.5432E+06    -1.63795E+06     57.2507E+03     3.67964E+06     8.98776E+06    -795.754E+03
           70872        No Value        No Value        No Value        No Value     121.460E+06    -122.278E+06    -1.98561E+06     10.5129E+03     3.55263E+06     199.107E+03    -13.2816E+03
           70888        No Value        No Value        No Value        No Value     83.0082E+06    -81.2054E+06    -962.908E+03    -64.6818E+03     3.96283E+06     10.4882E+06    -704.434E+03
           70889        No Value        No Value        No Value        No Value     104.085E+06    -103.291E+06    -461.712E+03    -108.607E+03     5.81148E+06     6.36467E+06    -381.661E+03
           70890        No Value        No Value        No Value        No Value     120.835E+06    -121.177E+06    -1.23916E+06     11.5661E+03     4.60762E+06     460.800E+03    -15.2619E+03
           70891        No Value        No Value        No Value        No Value     88.1955E+06    -85.2416E+06    -573.043E+03    -189.222E+03     6.33927E+06     12.2999E+06    -932.783E+03
           70892        No Value        No Value        No Value        No Value     127.326E+06    -126.809E+06    -769.090E+03    -8.18528E+03     8.70547E+06     839.242E+03    -51.5853E+03
           70908        No Value        No Value        No Value        No Value     89.9434E+06    -90.4761E+06    -1.66374E+06     12.6769E+03    -3.27918E+03     4.10220E+06        -9.39981
           70909        No Value        No Value        No Value        No Value     73.1382E+06    -72.4635E+06    -1.44152E+06     18.5634E+03     449.366E+03     8.13659E+06    -104.560E+03
           70910        No Value        No Value        No Value        No Value      90.343E+06    -90.8335E+06    -1.63754E+06     12.1685E+03     777.967E+03     4.25146E+06    -108.073E+03
           70911        No Value        No Value        No Value        No Value     107.965E+06    -108.874E+06    -1.85090E+06     2.97248E+03     326.964E+03     222.936E+03    -2.92761E+03
           70912        No Value        No Value        No Value        No Value     75.1249E+06    -74.7173E+06    -1.70206E+06     30.5491E+03    -2.17384E+03     7.81053E+06        -53.5117
           70913        No Value        No Value        No Value        No Value     111.405E+06    -112.433E+06    -2.08897E+06         737.650    -4.23346E+03     204.297E+03         1.44287
           70914        No Value        No Value        No Value        No Value     75.6872E+06    -75.1369E+06    -1.64775E+06     30.1363E+03     1.10426E+06     8.12105E+06    -294.260E+03
           70915        No Value        No Value        No Value        No Value     111.945E+06    -112.949E+06    -2.06278E+06     5.04178E+03     869.952E+03     214.573E+03    -8.99148E+03
           70941        No Value        No Value        No Value        No Value     74.1808E+06    -73.2083E+06    -1.29979E+06     18.0988E+03     1.33153E+06     8.75384E+06    -285.625E+03
           70942        No Value        No Value        No Value        No Value        91.8E+06    -92.0966E+06    -1.43772E+06     17.5258E+03     1.56670E+06     4.71431E+06    -189.453E+03
           70943        No Value        No Value        No Value        No Value     108.943E+06    -109.778E+06    -1.72152E+06         86.7014     1.04744E+06     248.046E+03    -7.91242E+03
           70944        No Value        No Value        No Value        No Value     77.6851E+06    -76.5959E+06    -1.36874E+06     35.7975E+03     2.35804E+06     9.14161E+06    -522.934E+03
           70945        No Value        No Value        No Value        No Value     113.868E+06    -114.694E+06    -1.78986E+06     7.77786E+03     2.00942E+06     226.406E+03    -6.31908E+03
           70961        No Value        No Value        No Value        No Value     77.1041E+06    -75.3813E+06    -712.582E+03    -122.460E+03     2.06617E+06     10.1978E+06    -373.478E+03
           70962        No Value        No Value        No Value        No Value     96.3104E+06    -95.8126E+06    -192.335E+03    -134.634E+03     2.65287E+06     5.93644E+06    -176.674E+03
           70963        No Value        No Value        No Value        No Value     112.029E+06    -112.444E+06    -980.259E+03     20.1727E+03     2.12189E+06     410.972E+03     1.56303E+03
           70964        No Value        No Value        No Value        No Value     82.5202E+06    -80.0303E+06    -262.486E+03    -231.871E+03     3.63117E+06     11.6019E+06    -538.122E+03
           70965        No Value        No Value        No Value        No Value     119.139E+06    -119.004E+06    -351.968E+03     13.6691E+03     4.86076E+06     704.180E+03    -22.6385E+03
           70981        No Value        No Value        No Value        No Value     70.4684E+06    -69.6495E+06    -1.15528E+06     6.53430E+03    -2.28632E+03     8.02937E+06        -10.8972
           70982        No Value        No Value        No Value        No Value     103.818E+06    -104.588E+06    -1.56010E+06     1.35256E+03    -4.36648E+03     215.939E+03         2.56543
           70983        No Value        No Value        No Value        No Value     70.7528E+06    -69.8009E+06    -1.11119E+06     6.04025E+03       813.2E+03     8.32003E+06    -103.127E+03
           70984        No Value        No Value        No Value        No Value     104.052E+06    -104.788E+06    -1.50551E+06     7.45214E+03     529.682E+03     225.912E+03    -2.56781E+03
           70995        No Value        No Value        No Value        No Value     71.8433E+06    -70.4506E+06    -911.610E+03     11.4787E+03     1.49263E+06     9.20006E+06    -208.947E+03
           70996        No Value        No Value        No Value        No Value     104.971E+06    -105.569E+06    -1.26261E+06     22.1966E+03     1.04270E+06     238.527E+03     4.40467E+03
           71002        No Value        No Value        No Value        No Value     74.9961E+06    -72.7185E+06    -163.533E+03    -230.887E+03     1.28478E+06     10.9547E+06    -192.665E+03
           71003        No Value        No Value        No Value        No Value     108.396E+06    -108.495E+06    -224.047E+03    -49.7652E+03     1.57133E+06     516.660E+03    -2.31215E+03
           71009        No Value        No Value        No Value        No Value     71.8425E+06    -70.4509E+06    -911.759E+03     11.4828E+03    -1.49516E+06     9.19683E+06     208.955E+03
           71010        No Value        No Value        No Value        No Value     91.8003E+06    -92.0970E+06    -1.43789E+06     17.5252E+03    -1.57105E+06     4.71267E+06     189.443E+03
           71011        No Value        No Value        No Value        No Value     104.971E+06    -105.569E+06    -1.26288E+06     22.1932E+03    -1.04888E+06     238.484E+03    -4.39707E+03
           71012        No Value        No Value        No Value        No Value     108.397E+06    -108.496E+06    -224.110E+03    -49.7600E+03    -1.57255E+06     515.989E+03     2.30658E+03
           71013        No Value        No Value        No Value        No Value     96.3106E+06    -95.8134E+06    -192.390E+03    -134.583E+03    -2.65380E+06     5.93272E+06     176.615E+03
           71014        No Value        No Value        No Value        No Value     74.9941E+06    -72.7194E+06    -163.562E+03    -230.869E+03    -1.28512E+06     10.9480E+06     192.643E+03
           71015        No Value        No Value        No Value        No Value     112.030E+06    -112.444E+06    -980.430E+03     20.1725E+03    -2.12575E+06     410.644E+03    -1.56035E+03
           71016        No Value        No Value        No Value        No Value     77.1027E+06    -75.3818E+06    -712.642E+03    -122.410E+03    -2.06760E+06     10.1928E+06     373.411E+03
           71017        No Value        No Value        No Value        No Value     77.6843E+06    -76.5960E+06    -1.36886E+06     35.8007E+03    -2.36050E+06     9.13835E+06     522.835E+03
           71018        No Value        No Value        No Value        No Value     98.7772E+06    -99.1534E+06    -1.71162E+06     32.5128E+03    -2.81576E+06     4.65075E+06     337.205E+03
           71019        No Value        No Value        No Value        No Value     113.868E+06    -114.694E+06    -1.79016E+06     7.78213E+03    -2.01555E+06     226.364E+03     6.32569E+03
           71020        No Value        No Value        No Value        No Value     119.140E+06    -119.005E+06    -352.083E+03     13.6710E+03    -4.86207E+06     703.461E+03     22.6118E+03
           71021        No Value        No Value        No Value        No Value     104.085E+06    -103.292E+06    -461.842E+03    -108.629E+03    -5.81226E+06     6.36093E+06     381.490E+03
           71022        No Value        No Value        No Value        No Value     82.5180E+06    -80.0309E+06    -262.530E+03    -231.827E+03    -3.63156E+06     11.5952E+06     537.925E+03
           71023        No Value        No Value        No Value        No Value     120.835E+06    -121.177E+06    -1.23944E+06     11.5662E+03    -4.61135E+06     460.466E+03     15.2410E+03
           71024        No Value        No Value        No Value        No Value     83.0067E+06    -81.2057E+06     -963.01E+03    -64.6888E+03    -3.96415E+06     10.4833E+06     704.210E+03
           71025        No Value        No Value        No Value        No Value     82.5100E+06    -81.5430E+06    -1.63812E+06     57.2358E+03    -3.68186E+06     8.98444E+06     795.499E+03
           71026        No Value        No Value        No Value        No Value     104.317E+06    -104.662E+06    -1.91614E+06     36.3988E+03    -4.42183E+06     4.53251E+06     470.795E+03
           71027        No Value        No Value        No Value        No Value     121.460E+06    -122.277E+06    -1.98609E+06     10.5064E+03    -3.55846E+06     199.061E+03     13.2994E+03
           71028        No Value        No Value        No Value        No Value     127.327E+06    -126.809E+06    -769.235E+03    -8.21215E+03    -8.70658E+06     838.595E+03     51.5609E+03
           71029        No Value        No Value        No Value        No Value     110.095E+06    -108.785E+06    -897.047E+03    -96.9094E+03    -9.22703E+06     6.76961E+06     602.185E+03
           71030        No Value        No Value        No Value        No Value     88.1929E+06    -85.2419E+06    -573.044E+03    -189.111E+03    -6.33952E+06     12.2930E+06     932.322E+03
           71031        No Value        No Value        No Value        No Value     127.740E+06    -127.846E+06    -1.55697E+06     13.8271E+03    -7.45702E+06     497.246E+03     35.2333E+03
           71032        No Value        No Value        No Value        No Value     87.5571E+06    -85.5521E+06    -1.28394E+06    -53.0127E+03    -6.12278E+06     10.7110E+06     1.03740E+06
           71033        No Value        No Value        No Value        No Value     86.1884E+06    -85.2417E+06    -1.89108E+06     69.9925E+03    -5.20622E+06     8.73893E+06     1.05431E+06
           71034        No Value        No Value        No Value        No Value     108.434E+06    -108.644E+06    -2.07751E+06     42.1993E+03    -6.12638E+06     4.36906E+06     600.143E+03
           71035        No Value        No Value        No Value        No Value     127.371E+06    -128.066E+06    -2.10118E+06     9.36630E+03    -5.34513E+06     162.659E+03     17.1472E+03
           71036        No Value        No Value        No Value        No Value     133.489E+06    -132.335E+06    -1.40914E+06    -8.49915E+03    -12.7761E+06     970.199E+03     87.6755E+03
           71037        No Value        No Value        No Value        No Value     114.493E+06    -112.468E+06    -1.57117E+06    -106.615E+03    -12.7615E+06     7.19057E+06     852.823E+03
           71038        No Value        No Value        No Value        No Value     92.5304E+06    -88.9119E+06    -1.05653E+06    -191.718E+03    -9.21360E+06     12.9911E+06     1.36820E+06
           71039        No Value        No Value        No Value        No Value     132.770E+06    -132.503E+06    -1.96776E+06     13.5985E+03    -10.4073E+06     527.346E+03     51.1482E+03
           71040        No Value        No Value        No Value        No Value     90.9111E+06    -88.5625E+06    -1.69800E+06    -51.5078E+03    -8.38295E+06     10.9087E+06     1.39419E+06
           71041        No Value        No Value        No Value        No Value     88.7723E+06    -87.7459E+06    -2.13511E+06     86.5289E+03    -6.78260E+06     8.42147E+06     1.32838E+06
           71042        No Value        No Value        No Value        No Value     111.182E+06    -111.172E+06    -2.19880E+06     52.3656E+03    -7.78446E+06     4.17212E+06     743.510E+03
           71043        No Value        No Value        No Value        No Value     131.603E+06    -132.073E+06    -2.13943E+06     7.85574E+03    -7.13103E+06     120.065E+03     16.9387E+03
           71044        No Value        No Value        No Value        No Value     137.764E+06    -135.736E+06    -2.27915E+06    -5.14713E+03    -16.8914E+06     1.10229E+06     129.687E+03
           71045        No Value        No Value        No Value        No Value     117.467E+06    -114.500E+06    -2.41719E+06    -125.365E+03    -16.2683E+06     7.66417E+06     1.11651E+06
           71046        No Value        No Value        No Value        No Value     95.7592E+06    -91.2310E+06    -1.70437E+06    -222.636E+03    -12.1406E+06     13.7547E+06     1.84248E+06
           71047        No Value        No Value        No Value        No Value     136.030E+06    -135.266E+06    -2.45216E+06     20.0574E+03    -13.2830E+06     551.793E+03     70.5268E+03
           71048        No Value        No Value        No Value        No Value     93.2043E+06    -90.3714E+06    -2.20612E+06    -71.0257E+03    -10.6541E+06     11.1213E+06     1.78288E+06
           71049        No Value        No Value        No Value        No Value     90.3688E+06    -89.1586E+06    -2.37040E+06     115.327E+03    -8.34522E+06     8.06579E+06     1.64925E+06
           71050        No Value        No Value        No Value        No Value     112.730E+06    -112.408E+06    -2.23896E+06     73.2414E+03    -9.32799E+06     3.96420E+06     908.205E+03
           71051        No Value        No Value        No Value        No Value     134.264E+06    -134.415E+06    -2.06951E+06     13.9712E+03    -8.76593E+06     68.9794E+03     2.04476E+03
           71052        No Value        No Value        No Value        No Value     140.319E+06    -137.238E+06    -3.40611E+06    -33.2085E+03    -20.9025E+06     1.24874E+06     177.468E+03
           71053        No Value        No Value        No Value        No Value     119.234E+06    -115.163E+06    -3.55640E+06    -213.327E+03    -19.7064E+06     8.25799E+06     1.50018E+06
           71054        No Value        No Value        No Value        No Value     98.1396E+06    -92.4479E+06    -2.59058E+06    -313.112E+03    -15.0840E+06     14.6831E+06     2.43898E+06
           71055        No Value        No Value        No Value        No Value     137.724E+06    -136.355E+06    -2.94026E+06     20.1053E+03    -15.9543E+06     584.271E+03     62.6280E+03
           71056        No Value        No Value        No Value        No Value     94.6775E+06    -91.1676E+06    -2.78042E+06    -88.7712E+03    -12.8817E+06     11.4427E+06     2.29221E+06
           71057        No Value        No Value        No Value        No Value     91.1016E+06    -89.5879E+06    -2.62607E+06     170.146E+03    -9.91226E+06     7.68689E+06     2.14074E+06
           71058        No Value        No Value        No Value        No Value     113.152E+06    -112.476E+06    -2.26932E+06     84.2922E+03    -10.7366E+06     3.74794E+06     1.22314E+06
           71059        No Value        No Value        No Value        No Value     135.492E+06    -135.266E+06    -1.86253E+06    -2.37952E+03    -10.1533E+06     16.7895E+03     7.14034E+03
           71060        No Value        No Value        No Value        No Value     141.725E+06    -137.290E+06    -4.56549E+06     69.5842E+03    -24.6810E+06     1.40080E+06     226.945E+03
           71061        No Value        No Value        No Value        No Value     120.648E+06    -115.085E+06    -4.43515E+06    -203.774E+03    -22.8616E+06     9.12656E+06     1.69007E+06
           71062        No Value        No Value        No Value        No Value     100.252E+06    -92.9634E+06    -3.40038E+06    -482.964E+03    -17.9190E+06     16.0120E+06     2.98421E+06
           71063        No Value        No Value        No Value        No Value     138.213E+06    -136.184E+06    -3.52634E+06     92.6540E+03    -18.3527E+06     572.202E+03     119.263E+03
           71064        No Value        No Value        No Value        No Value     95.7614E+06    -91.3894E+06    -3.49943E+06    -247.317E+03    -15.2035E+06     11.9935E+06     2.84042E+06
           71065        No Value        No Value        No Value        No Value     91.1957E+06    -89.1756E+06    -2.86448E+06     292.624E+03    -11.5475E+06     7.32925E+06     2.76543E+06
           71066        No Value        No Value        No Value        No Value     113.278E+06    -111.763E+06    -1.79299E+06     286.149E+03    -12.3470E+06     3.55391E+06     1.46224E+06
           71067        No Value        No Value        No Value        No Value     135.694E+06    -134.884E+06    -1.28584E+06     93.0778E+03    -11.1797E+06    -76.8428E+03    -120.591E+03
           71068        No Value        No Value        No Value        No Value     142.376E+06    -136.875E+06    -6.67801E+06    -399.578E+03    -28.5971E+06     1.75942E+06     335.810E+03
           71069        No Value        No Value        No Value        No Value     121.983E+06    -115.039E+06    -6.97107E+06    -835.387E+03    -26.6354E+06     10.6377E+06     3.24300E+06
           71070        No Value        No Value        No Value        No Value     103.073E+06    -93.7429E+06    -5.59817E+06    -1.04255E+06    -21.4137E+06     18.1898E+06     4.61566E+06
           71071        No Value        No Value        No Value        No Value     138.645E+06    -135.489E+06    -3.23173E+06     104.548E+03    -20.6237E+06     769.059E+03    -126.049E+03
           71072        No Value        No Value        No Value        No Value     97.5691E+06    -91.5468E+06    -4.21202E+06    -160.840E+03    -17.6541E+06     13.2776E+06     4.39554E+06
           71073        No Value        No Value        No Value        No Value     89.2956E+06    -87.0244E+06    -5.00047E+06     230.974E+03    -13.8334E+06     6.57314E+06     4.92312E+06
           71074        No Value        No Value        No Value        No Value     108.537E+06    -107.840E+06    -5.15263E+06    -338.959E+03    -14.2020E+06     3.29088E+06     3.27066E+06
           71075        No Value        No Value        No Value        No Value     133.344E+06    -132.566E+06    -1.58164E+06    -283.939E+03    -12.2411E+06    -150.297E+03     180.052E+03
           71076        No Value        No Value        No Value        No Value     146.736E+06    -138.264E+06    -6.44749E+06     1.31885E+06    -31.9412E+06     1.88581E+06     313.843E+03
           71077        No Value        No Value        No Value        No Value      131.69E+06    -122.032E+06    -5.08887E+06    -189.393E+03    -28.8396E+06     13.6775E+06     979.568E+03
           71078        No Value        No Value        No Value        No Value     110.179E+06    -96.3332E+06    -3.94170E+06    -1.94392E+06    -24.2546E+06     23.0890E+06     4.10402E+06
           71079        No Value        No Value        No Value        No Value     137.438E+06    -133.975E+06    -6.46895E+06     1.46453E+06    -22.7091E+06    -296.437E+03     413.136E+03
           71080        No Value        No Value        No Value        No Value     100.433E+06    -91.8926E+06    -6.42530E+06    -1.44477E+06    -22.4478E+06     15.7723E+06     4.91515E+06
           71081        No Value        No Value        No Value        No Value     81.8359E+06    -79.4077E+06    -3.71599E+06     2.63658E+06    -10.5829E+06     3.15140E+06     4.13509E+06
           71082        No Value        No Value        No Value        No Value     103.421E+06    -95.8884E+06     7.39272E+06     4.88529E+06    -2.09708E+06    -2.15616E+06     185.096E+03
           71083        No Value        No Value        No Value        No Value     129.380E+06    -124.539E+06     5.66224E+06     1.88196E+06    -6.54977E+06    -1.53594E+06    -1.02944E+06
           71084        No Value        No Value        No Value        No Value     168.816E+06    -158.000E+06    -22.8527E+06    -6.63926E+06    -50.1823E+06     8.40132E+06     2.09204E+06
           71085        No Value        No Value        No Value        No Value     175.400E+06    -143.660E+06     -44.052E+06    -19.6129E+06    -65.5921E+06     33.0486E+06     23.2973E+06
           71086        No Value        No Value        No Value        No Value     139.095E+06    -109.650E+06    -27.1028E+06    -13.1656E+06    -42.9690E+06     37.4394E+06     21.9434E+06
           71087        No Value        No Value        No Value        No Value     146.386E+06    -143.051E+06    -9.57264E+06    -3.76175E+06    -30.0637E+06     5.38501E+06    -1.21297E+06
           71088        No Value        No Value        No Value        No Value     107.034E+06    -92.2958E+06    -26.0820E+06    -7.63395E+06    -29.7697E+06     22.5285E+06     21.0467E+06
           71339        No Value        No Value        No Value        No Value     70.7525E+06    -69.8010E+06    -1.11130E+06     6.04101E+03    -817.288E+03     8.31863E+06     103.115E+03
           71340        No Value        No Value        No Value        No Value     90.3431E+06    -90.8336E+06    -1.63768E+06     12.1693E+03    -784.005E+03     4.25074E+06     108.060E+03
           71341        No Value        No Value        No Value        No Value     104.052E+06    -104.788E+06    -1.50567E+06     7.45363E+03    -537.828E+03     225.888E+03     2.57336E+03
           71342        No Value        No Value        No Value        No Value     108.944E+06    -109.778E+06    -1.72174E+06         85.1980    -1.05451E+06     247.983E+03     7.91764E+03
           71343        No Value        No Value        No Value        No Value     74.1803E+06    -73.2085E+06    -1.29990E+06     18.0972E+03    -1.33484E+06     8.75148E+06     285.594E+03
           71344        No Value        No Value        No Value        No Value     75.6868E+06    -75.1369E+06    -1.64786E+06     30.1308E+03    -1.10816E+06     8.11962E+06     294.160E+03
           71345        No Value        No Value        No Value        No Value     96.5275E+06    -97.2490E+06    -2.06428E+06     21.5104E+03    -1.20800E+06     4.08398E+06     194.610E+03
           71346        No Value        No Value        No Value        No Value     111.945E+06    -112.949E+06    -2.06299E+06     5.03775E+03    -877.879E+03     214.547E+03     8.99630E+03
           71347        No Value        No Value        No Value        No Value     116.927E+06    -117.907E+06    -2.08314E+06    -4.17574E+03    -1.95730E+06     238.279E+03     16.7668E+03
           71348        No Value        No Value        No Value        No Value     79.2135E+06    -78.5348E+06    -1.68233E+06     36.0015E+03    -2.09818E+06     8.55296E+06     516.198E+03
           71349        No Value        No Value        No Value        No Value     79.9889E+06    -79.7552E+06    -1.96968E+06     42.1779E+03    -1.59431E+06     7.72187E+06     446.379E+03
           71350        No Value        No Value        No Value        No Value     101.793E+06    -102.597E+06    -2.20152E+06     24.7699E+03    -1.82565E+06     3.82860E+06     266.318E+03
           71351        No Value        No Value        No Value        No Value     119.000E+06    -120.104E+06    -2.29716E+06     2.25625E+03    -1.43873E+06     190.130E+03     14.7547E+03
           71352        No Value        No Value        No Value        No Value     123.545E+06    -124.507E+06    -2.19369E+06    -5.89248E+03    -3.17671E+06     217.463E+03     23.9958E+03
           71353        No Value        No Value        No Value        No Value     83.2789E+06    -82.7798E+06    -1.90963E+06     48.0617E+03    -3.10636E+06     8.22105E+06     715.724E+03
           71354        No Value        No Value        No Value        No Value     83.4289E+06    -83.4089E+06    -2.10175E+06     48.7418E+03    -2.20175E+06     7.17631E+06     582.310E+03
           71355        No Value        No Value        No Value        No Value     105.873E+06    -106.646E+06    -2.13887E+06     27.7940E+03    -2.51728E+06     3.50614E+06     334.146E+03
           71356        No Value        No Value        No Value        No Value     124.795E+06    -125.841E+06    -2.23707E+06     2.60462E+03    -2.14223E+06     157.870E+03     18.3529E+03
           71357        No Value        No Value        No Value        No Value     128.597E+06    -129.427E+06    -2.15016E+06    -7.99461E+03    -4.48707E+06     192.563E+03     29.2780E+03
           71358        No Value        No Value        No Value        No Value     86.2982E+06    -85.8922E+06    -2.05560E+06     56.1923E+03    -4.20217E+06     7.78519E+06     914.225E+03
           71359        No Value        No Value        No Value        No Value     85.8985E+06    -86.0023E+06    -2.09221E+06     53.9731E+03    -2.84542E+06     6.50851E+06     727.978E+03
           71360        No Value        No Value        No Value        No Value     108.719E+06    -109.359E+06    -1.88960E+06     29.8690E+03    -3.18803E+06     3.12314E+06     414.391E+03
           71361        No Value        No Value        No Value        No Value     129.146E+06    -130.005E+06    -1.93421E+06     3.47662E+03    -2.86093E+06     120.101E+03     21.2919E+03
           71362        No Value        No Value        No Value        No Value     132.075E+06    -132.670E+06    -1.94801E+06    -12.6902E+03    -5.73685E+06     166.068E+03     31.1761E+03
           71363        No Value        No Value        No Value        No Value     88.2848E+06    -87.8841E+06    -2.12432E+06     70.5478E+03    -5.29706E+06     7.26540E+06     1.13671E+06
           71364        No Value        No Value        No Value        No Value     87.3905E+06    -87.5146E+06    -1.92122E+06     69.5434E+03    -3.47379E+06     5.70964E+06     912.170E+03
           71365        No Value        No Value        No Value        No Value     110.393E+06    -110.750E+06    -1.36769E+06     46.6499E+03    -3.78692E+06     2.66889E+06     518.703E+03
           71366        No Value        No Value        No Value        No Value     132.075E+06    -132.594E+06    -1.33214E+06     3.98867E+03    -3.49810E+06      80.312E+03     21.6567E+03
           71367        No Value        No Value        No Value        No Value     134.107E+06    -134.352E+06    -1.52860E+06    -20.4653E+03    -6.83298E+06     136.541E+03     39.6031E+03
           71368        No Value        No Value        No Value        No Value     89.3192E+06    -88.8332E+06    -2.10874E+06     92.6336E+03    -6.36792E+06     6.66248E+06     1.43923E+06
           71369        No Value        No Value        No Value        No Value     87.9127E+06    -87.9632E+06    -1.58930E+06     71.1000E+03    -4.07176E+06     4.75943E+06     1.19947E+06
           71370        No Value        No Value        No Value        No Value     110.904E+06    -110.862E+06    -575.173E+03     27.8367E+03    -4.26838E+06     2.11319E+06     709.482E+03
           71371        No Value        No Value        No Value        No Value     133.659E+06    -133.652E+06    -349.940E+03     7.31950E+03    -3.98193E+06     26.6783E+03     27.9810E+03
           71372        No Value        No Value        No Value        No Value     134.815E+06    -134.547E+06    -746.000E+03    -29.8731E+03    -7.66022E+06     123.937E+03     20.8535E+03
           71373        No Value        No Value        No Value        No Value     89.4388E+06    -88.7210E+06    -1.93536E+06     154.721E+03    -7.37802E+06     5.99620E+06     1.88239E+06
           71374        No Value        No Value        No Value        No Value     87.5057E+06    -87.2169E+06    -771.081E+03     154.736E+03    -4.43592E+06     3.49775E+06     1.59811E+06
           71375        No Value        No Value        No Value        No Value     110.469E+06    -109.490E+06     1.24363E+06     158.378E+03    -4.15300E+06     1.37922E+06     905.259E+03
           71376        No Value        No Value        No Value        No Value     134.147E+06    -133.175E+06     1.52596E+06     23.2812E+03    -4.11578E+06    -27.1568E+03     26.3714E+03
           71377        No Value        No Value        No Value        No Value     134.222E+06    -133.410E+06     222.429E+03    -151.973E+03    -8.32441E+06    -2.80761E+03     140.694E+03
           71378        No Value        No Value        No Value        No Value     88.5101E+06    -87.6920E+06    -2.05040E+06     78.5535E+03    -8.48271E+06     5.02186E+06     2.65301E+06
           71379        No Value        No Value        No Value        No Value     86.5776E+06    -85.8188E+06     470.654E+03    -1.39343E+03    -4.67799E+06     2.04715E+06     2.00638E+06
           71380        No Value        No Value        No Value        No Value     108.877E+06    -106.368E+06     4.04545E+06     342.956E+03    -4.16386E+06     202.759E+03     1.22587E+06
           71381        No Value        No Value        No Value        No Value     133.979E+06    -131.601E+06     4.33760E+06    -64.2337E+03    -4.07947E+06    -66.1224E+03     38.4386E+03
           71382        No Value        No Value        No Value        No Value     134.037E+06    -132.058E+06     3.04409E+06    -535.405E+03    -7.76414E+06     524.273E+03    -255.333E+03
           71383        No Value        No Value        No Value        No Value     87.0656E+06    -85.8667E+06    -1.50766E+06     115.383E+03    -8.66193E+06     4.31326E+06     3.73279E+06
           71384        No Value        No Value        No Value        No Value     84.6691E+06    -82.4683E+06     3.46259E+06    -98.1900E+03    -4.33238E+06    -25.4065E+03     2.67655E+06
           71385        No Value        No Value        No Value        No Value     109.811E+06    -105.201E+06     8.68387E+06    -661.341E+03    -4.46134E+06    -198.237E+03     1.18350E+06
           71386        No Value        No Value        No Value        No Value     132.897E+06    -127.487E+06     9.65306E+06     356.826E+03    -3.72840E+06    -349.706E+03    -191.760E+03
           71387        No Value        No Value        No Value        No Value     132.247E+06    -125.332E+06     11.8799E+06     32.1325E+03    -6.87008E+06    -304.117E+03     1.36607E+06
           71388        No Value        No Value        No Value        No Value     82.8696E+06    -79.4748E+06     3.54368E+06     1.00865E+06    -6.85933E+06     710.280E+03     3.49566E+06
           71539        No Value        No Value        No Value        No Value     107.965E+06    -108.875E+06    -1.85099E+06     2.97314E+03    -335.298E+03     222.919E+03     2.93258E+03
           71540        No Value        No Value        No Value        No Value     73.1381E+06    -72.4635E+06    -1.44158E+06     18.5630E+03    -453.620E+03     8.13588E+06     104.522E+03
           71541        No Value        No Value        No Value        No Value     115.421E+06    -116.532E+06    -2.26683E+06     2.09199E+03    -564.720E+03     205.380E+03     6.26901E+03
           71542        No Value        No Value        No Value        No Value     77.6976E+06    -77.4149E+06    -1.89404E+06     35.4977E+03    -651.578E+03     7.80374E+06     188.285E+03
           71543        No Value        No Value        No Value        No Value     121.856E+06    -122.994E+06    -2.33057E+06         579.226    -899.636E+03     177.987E+03     8.57406E+03
           71544        No Value        No Value        No Value        No Value     81.5432E+06    -81.5526E+06    -2.10631E+06     41.9610E+03    -935.520E+03     7.29064E+06     257.713E+03
           71545        No Value        No Value        No Value        No Value     126.939E+06    -127.964E+06    -2.11407E+06        -718.851    -1.27195E+06     145.350E+03     10.4601E+03
           71546        No Value        No Value        No Value        No Value     84.4781E+06    -84.6866E+06    -2.13915E+06     46.5127E+03    -1.25555E+06     6.63890E+06     324.874E+03
           71547        No Value        No Value        No Value        No Value     130.595E+06    -131.364E+06    -1.61325E+06         515.649    -1.62397E+06     109.562E+03     10.8104E+03
           71548        No Value        No Value        No Value        No Value     86.4412E+06    -86.7558E+06    -2.00869E+06     53.9864E+03    -1.57708E+06     5.85919E+06     403.353E+03
           71549        No Value        No Value        No Value        No Value     132.884E+06    -133.221E+06    -753.693E+03    -6.37266E+03    -1.91858E+06     68.1400E+03     14.2378E+03
           71550        No Value        No Value        No Value        No Value     87.4280E+06    -87.7505E+06    -1.70094E+06     64.3640E+03    -1.88798E+06     4.92016E+06     513.282E+03
           71551        No Value        No Value        No Value        No Value     134.019E+06    -133.586E+06     757.622E+03     6.45779E+03    -2.09567E+06     20.5090E+03     13.7834E+03
           71552        No Value        No Value        No Value        No Value     87.5320E+06    -87.6875E+06    -1.06328E+06     78.2836E+03    -2.14927E+06     3.77002E+06     685.034E+03
           71553        No Value        No Value        No Value        No Value     134.044E+06    -132.330E+06     3.25283E+06     20.2267E+03    -2.07948E+06    -25.2677E+03         123.008
           71554        No Value        No Value        No Value        No Value     86.7049E+06    -86.3733E+06     129.264E+03     143.697E+03    -2.28616E+06     2.27498E+06     925.625E+03
           71555        No Value        No Value        No Value        No Value     133.468E+06    -129.520E+06     7.44221E+06     69.7446E+03    -1.80353E+06    -185.652E+03     96.9403E+03
           71556        No Value        No Value        No Value        No Value     85.5092E+06    -84.1341E+06     2.37956E+06     107.858E+03    -2.18194E+06     382.193E+03     1.10529E+06
           71557        No Value        No Value        No Value        No Value     133.109E+06    -125.888E+06     13.3527E+06    -59.6334E+03    -2.40837E+06    -59.5355E+03    -335.338E+03
           71558        No Value        No Value        No Value        No Value     84.8264E+06    -81.5982E+06     5.94435E+06    -168.260E+03    -2.35039E+06    -1.38658E+06      1.5524E+06


  Minimum            503.751E-06    -585.296E-06     51.2632E-06     125.000E-06     33.5884E+06    -173.818E+06    -89.3463E+06    -22.4444E+06    -79.9406E+06    -3.76130E+06    -42.0469E+06
         At Node               3              17              17              17           69961              42              31            1595              31            1548            1547

  Maximum            600.686E-06    -485.296E-06     51.2632E-06     125.000E-06     196.903E+06    -19.2826E+06     20.7013E+06     15.6728E+06     79.9318E+06     48.8391E+06     42.0016E+06
         At Node              17               3              17              17              42            7631            1511            7626              22            1595            1595

           Total     1.10444E-03    -1.07059E-03     102.526E-06     250.000E-06     69.7578E+09    -67.2222E+09    -4.06448E+09    -136.941E+06    -1.11629E+06     3.75419E+09    -1.67498E+06


