********************************************************************************
Field Output Report, written Wed Nov 18 11:00:37 2020

Source 1
---------

   ODB: C:/Users/trin3150/Documents/Abaqus/liltemp/nanoindenter_std-1.odb
   Step: nanoindenter
   Frame: Increment      2: Frequency =   2.0000E+04
   Complex: Real

Loc 1 : Nodal values from source 1

Output sorted by column "Node Label".

Field Output reported at nodes for part: INST-1
   Computation algorithm: EXTRAPOLATE_COMPUTE_AVERAGE
   Averaged at nodes
   Averaging regions: ODB_REGIONS

      Node Label  COORD.Magnitude     COORD.COOR1     COORD.COOR2     COORD.COOR3         S.Mises           S.S11           S.S22           S.S33           S.S12           S.S13           S.S23
                          @Loc 1          @Loc 1          @Loc 1          @Loc 1          @Loc 1          @Loc 1          @Loc 1          @Loc 1          @Loc 1          @Loc 1          @Loc 1
--------------------------------------------------------------------------------------------------------------------------------------------------------------------------------------------------
               3     503.751E-06    -485.296E-06     51.2632E-06     125.000E-06        No Value        No Value        No Value        No Value        No Value        No Value        No Value
              17     600.686E-06    -585.296E-06     51.2632E-06     125.000E-06        No Value        No Value        No Value        No Value        No Value        No Value        No Value
              21     649.502E-06    -635.296E-06     51.2632E-06     125.000E-06     55.2672E+06    -37.8242E+06    -63.1331E+06     252.000E+03     1.40544E+03    -207.425E+03         7.57422
              26     647.477E-06    -635.296E-06     1.26317E-06     125.000E-06     168.613E+06    -100.716E+06    -89.3443E+06    -5.16893E+06     79.9387E+06     18.3196E+06    -5.18947E+06
              29     655.347E-06    -635.296E-06     101.263E-06     125.000E-06     168.605E+06    -100.712E+06    -89.3405E+06    -5.16868E+06    -79.9350E+06     18.3185E+06     5.18915E+06
              34     747.604E-06    -735.296E-06     51.2632E-06     125.000E-06     99.9217E+06    -100.522E+06    -1.21498E+06     2.62274E+03     1.83036E+03     217.920E+03     481.079E-03
              35     752.688E-06    -735.296E-06     101.263E-06     125.000E-06     102.006E+06    -102.005E+06    -17.0921E+03     13.5416E+03     202.171E+03     412.055E+03    -3.76226E+03
              37     745.846E-06    -735.296E-06     1.26317E-06     125.000E-06     102.007E+06    -102.006E+06    -17.1405E+03     13.5156E+03    -202.378E+03     412.403E+03     3.76280E+03
              39     945.003E-06    -935.296E-06     51.2632E-06     125.000E-06     131.524E+06    -123.491E+06     14.5467E+06     358.587E+03    -4.31036E+03    -442.584E+03         867.438
              42     952.585E-06    -935.296E-06     130.443E-06     125.000E-06     195.630E+06    -173.570E+06    -37.4764E+06    -16.8251E+06     72.0061E+06     17.2827E+06    -4.54827E+06
              43     944.024E-06    -935.296E-06    -27.9164E-06     125.000E-06     195.309E+06    -173.249E+06    -37.1699E+06    -16.7535E+06    -71.8438E+06     17.2023E+06     4.49943E+06
            1007        No Value        No Value        No Value        No Value     37.0423E+06    -26.5454E+06    -40.9371E+06     584.957E+03         783.031     3.57421E+06         157.816
            1096     648.400E-06    -635.296E-06     34.5965E-06     125.000E-06     62.5801E+06    -40.4950E+06    -65.7306E+06    -351.591E+03     14.7639E+06     248.691E+03     66.3971E+03
            1097     647.724E-06    -635.296E-06     17.9298E-06     125.000E-06     79.3018E+06    -27.4090E+06    -70.2943E+06     1.31658E+06     28.0651E+06    -1.80868E+06     411.020E+03
            1173        No Value        No Value        No Value        No Value     128.409E+06    -89.8908E+06    -63.2279E+06    -20.0125E+06     54.6943E+06     33.5360E+06    -11.6874E+06
            1329     651.030E-06    -635.296E-06     67.9298E-06     125.000E-06     62.5773E+06    -40.4950E+06    -65.7294E+06    -351.577E+03    -14.7611E+06     248.669E+03    -66.3843E+03
            1330     652.979E-06    -635.296E-06     84.5965E-06     125.000E-06     79.2972E+06    -27.4096E+06    -70.2918E+06     1.31653E+06    -28.0626E+06    -1.80857E+06    -411.012E+03
            1331        No Value        No Value        No Value        No Value     128.402E+06    -89.8858E+06    -63.2251E+06    -20.0112E+06    -54.6917E+06     33.5331E+06     11.6864E+06
            1493        No Value        No Value        No Value        No Value     68.0549E+06    -67.0191E+06    -825.230E+03    -12.1910E+03         978.764     8.06973E+06         6.17651
            1494     748.932E-06    -735.296E-06     67.9298E-06     125.000E-06     99.9903E+06    -100.544E+06    -1.12784E+06     4.00974E+03     428.717E+03     226.584E+03         363.676
            1495     750.627E-06    -735.296E-06     84.5965E-06     125.000E-06     100.384E+06    -100.792E+06    -848.614E+03     8.07166E+03     747.594E+03     242.997E+03        -360.762
            1496        No Value        No Value        No Value        No Value     70.4358E+06    -68.0217E+06        -783.039    -77.1007E+03     300.783E+03     10.6342E+06    -20.9494E+03
            1511     674.753E-06    -655.296E-06     101.263E-06     125.000E-06     63.4720E+06    -42.5819E+06     20.7001E+06     2.91293E+06     10.8435E+06     2.23821E+06    -1.45869E+06
            1512     694.193E-06    -675.296E-06     101.263E-06     125.000E-06     61.3311E+06    -60.9922E+06    -327.988E+03     475.845E+03     675.283E+03     1.15393E+06     276.483E+03
            1513     713.663E-06    -695.296E-06     101.263E-06     125.000E-06     76.2639E+06    -75.7029E+06     953.579E+03     144.048E+03     343.837E+03     499.274E+03    -87.4973E+03
            1514     733.162E-06    -715.296E-06     101.263E-06     125.000E-06     88.5779E+06    -88.6449E+06    -116.009E+03    -27.2197E+03    -108.759E+03     498.289E+03     17.6403E+03
            1515     727.943E-06    -715.296E-06     51.2632E-06     125.000E-06     91.7344E+06    -92.2569E+06    -1.06371E+06     7.95359E+03     1.81859E+03     192.701E+03         1.43909
            1516     708.300E-06    -695.296E-06     51.2632E-06     125.000E-06     82.6181E+06    -84.1838E+06    -3.23749E+06     8.61524E+03     1.84471E+03     136.245E+03         2.51221
            1517     688.678E-06    -675.296E-06     51.2632E-06     125.000E-06     69.2685E+06    -74.6242E+06    -12.2334E+06    -90.3805E+03      1.8825E+03     20.0211E+03         3.64453
            1518     669.078E-06    -655.296E-06     51.2632E-06     125.000E-06     51.2324E+06    -58.9598E+06    -34.0022E+06    -35.3939E+03     1.79821E+03    -7.91471E+03         5.52637
            1519     667.112E-06    -655.296E-06     1.26317E-06     125.000E-06     63.4737E+06    -42.5828E+06     20.7009E+06     2.91309E+06    -10.8437E+06     2.23854E+06     1.45876E+06
            1520     686.768E-06    -675.296E-06     1.26317E-06     125.000E-06     61.3318E+06    -60.9928E+06    -328.024E+03     475.854E+03    -675.085E+03     1.15425E+06    -276.501E+03
            1521     706.444E-06    -695.296E-06     1.26317E-06     125.000E-06     76.2644E+06    -75.7033E+06     953.624E+03     144.056E+03    -343.651E+03     499.565E+03     87.4997E+03
            1522     726.137E-06    -715.296E-06     1.26317E-06     125.000E-06     88.5783E+06    -88.6452E+06    -116.030E+03    -27.2104E+03     109.017E+03     498.576E+03    -17.6439E+03
            1523        No Value        No Value        No Value        No Value     70.4378E+06    -68.0225E+06        -819.820    -77.2404E+03    -301.156E+03     10.6374E+06     21.0095E+03
            1534     746.060E-06    -735.296E-06     17.9298E-06     125.000E-06     100.384E+06    -100.792E+06    -848.796E+03     8.07847E+03    -745.170E+03     243.016E+03         359.731
            1535     746.647E-06    -735.296E-06     34.5965E-06     125.000E-06     99.9903E+06    -100.544E+06    -1.12788E+06     4.00714E+03    -425.338E+03     226.595E+03        -362.412
            1536        No Value        No Value        No Value        No Value     84.5599E+06    -80.2050E+06     7.33512E+06     769.337E+03    -1.95803E+03    -2.48128E+06         688.688
            1547        No Value        No Value        No Value        No Value     171.809E+06    -113.815E+06    -50.1073E+06    -22.2367E+06     59.1456E+06     48.7356E+06    -41.9814E+06
            1548     949.331E-06    -935.296E-06     104.050E-06     125.000E-06     130.008E+06    -117.820E+06     14.8789E+06     4.86794E+06    -834.395E+03    -3.52438E+06     1.75253E+06
            1549     946.802E-06    -935.296E-06     77.6564E-06     125.000E-06     134.542E+06    -127.976E+06     12.2389E+06     -472.92E+03     4.42643E+06     143.855E+03     609.497E+03
            1550     772.550E-06    -755.575E-06     101.557E-06     125.000E-06     114.597E+06    -114.578E+06    -222.331E+03     13.8367E+03     2.99763E+06     629.806E+03    -4.97610E+03
            1551     792.492E-06    -775.838E-06     102.438E-06     125.000E-06     123.794E+06    -123.516E+06    -530.872E+03    -17.9244E+03     6.69786E+06     773.663E+03    -34.2538E+03
            1552     812.492E-06    -796.067E-06     103.906E-06     125.000E-06     130.946E+06    -130.129E+06    -1.02555E+06    -6.25832E+03     10.7059E+06     905.044E+03    -67.8051E+03
            1553     832.531E-06    -816.245E-06     105.959E-06     125.000E-06     136.118E+06    -134.551E+06    -1.79586E+06    -14.2015E+03     14.8461E+06     1.03531E+06    -106.690E+03
            1554     852.588E-06    -836.354E-06     108.596E-06     125.000E-06     139.487E+06    -136.923E+06    -2.76421E+06     2.32966E+03     18.9316E+06     1.17006E+06    -150.339E+03
            1555     872.647E-06    -856.379E-06     111.815E-06     125.000E-06     141.236E+06    -137.546E+06    -4.03114E+06    -64.2813E+03     22.8812E+06     1.31864E+06    -205.446E+03
            1556     892.691E-06    -876.302E-06     115.612E-06     125.000E-06     142.182E+06    -136.971E+06    -5.09886E+06     230.710E+03     26.3801E+06     1.47458E+06    -228.553E+03
            1557     912.705E-06    -896.107E-06     119.985E-06     125.000E-06     142.570E+06    -136.098E+06    -7.29189E+06    -541.153E+03     30.6039E+06     1.73023E+06    -421.985E+03
            1558     932.674E-06    -915.777E-06     124.930E-06     125.000E-06     150.116E+06    -141.913E+06    -7.32863E+06     3.08399E+06     30.9978E+06     957.774E+03     68.1216E+03
            1559     925.213E-06    -915.296E-06     51.2632E-06     125.000E-06     134.063E+06    -129.803E+06     8.31845E+06    -205.824E+03    -1.52994E+03    -36.7839E+03        -142.988
            1560     905.432E-06    -895.296E-06     51.2632E-06     125.000E-06     134.224E+06    -132.295E+06     3.82377E+06    -50.3785E+03     2.84779E+03    -73.1267E+03        -29.2168
            1561     885.661E-06    -875.296E-06     51.2632E-06     125.000E-06     133.862E+06    -133.327E+06     1.08661E+06    -23.5535E+03     1.60611E+03        -221.680        -37.0371
            1562     865.900E-06    -855.296E-06     51.2632E-06     125.000E-06     132.667E+06    -132.929E+06    -526.282E+03        -406.403     1.83495E+03     46.9646E+03        -27.0815
            1563     846.151E-06    -835.296E-06     51.2632E-06     125.000E-06     130.269E+06    -131.033E+06    -1.53425E+06    -7.03393E+03     1.82154E+03     91.8636E+03        -19.1777
            1564     826.414E-06    -815.296E-06     51.2632E-06     125.000E-06     126.558E+06    -127.592E+06    -2.09299E+06    -2.01944E+03     1.75932E+03     129.172E+03        -11.3926
            1565     806.690E-06    -795.296E-06     51.2632E-06     125.000E-06     121.456E+06    -122.616E+06    -2.35228E+06    -1.81500E+03     1.75752E+03     164.202E+03        -6.94751
            1566     786.979E-06    -775.296E-06     51.2632E-06     125.000E-06     115.072E+06    -116.203E+06    -2.29648E+06    -1.16364E+03     1.79282E+03     194.248E+03        -3.67859
            1567     767.284E-06    -755.296E-06     51.2632E-06     125.000E-06     107.744E+06    -108.663E+06    -1.86553E+06     2.83449E+03     1.82928E+03     214.804E+03        -1.31296
            1586     765.846E-06    -755.575E-06     969.182E-09     125.000E-06     114.596E+06    -114.578E+06    -222.351E+03     13.8461E+03    -2.99818E+06     630.168E+03     4.98988E+03
            1587     785.843E-06    -775.838E-06     87.8249E-09     125.000E-06     123.793E+06    -123.514E+06    -530.877E+03    -17.9412E+03    -6.69819E+06     773.977E+03     34.2910E+03
            1588     805.822E-06    -796.067E-06    -1.38016E-06     125.000E-06     130.943E+06    -130.127E+06    -1.02554E+06    -6.24625E+03    -10.7059E+06     905.305E+03     67.8300E+03
            1589     825.767E-06    -816.244E-06    -3.43354E-06     125.000E-06     136.115E+06    -134.548E+06    -1.79575E+06    -14.1683E+03    -14.8458E+06     1.03554E+06     106.731E+03
            1590     845.666E-06    -836.354E-06    -6.07059E-06     125.000E-06     139.483E+06    -136.918E+06    -2.76417E+06     2.25155E+03    -18.9308E+06     1.17020E+06     150.387E+03
            1591     865.504E-06    -856.379E-06    -9.28911E-06     125.000E-06     141.229E+06    -137.539E+06    -4.03023E+06    -64.0483E+03    -22.8798E+06     1.31887E+06     205.481E+03
            1592     885.269E-06    -876.302E-06    -13.0864E-06     125.000E-06     142.168E+06    -136.959E+06    -5.10150E+06     229.261E+03    -26.3766E+06     1.47469E+06     228.864E+03
            1593     904.952E-06    -896.107E-06    -17.4592E-06     125.000E-06     142.553E+06    -136.075E+06    -7.27794E+06    -539.183E+03    -30.5998E+06     1.73228E+06     421.167E+03
            1594     924.540E-06    -915.777E-06    -22.4040E-06     125.000E-06     149.985E+06    -141.834E+06    -7.37404E+06     3.06232E+06    -30.9566E+06     976.240E+03    -55.7987E+03
            1595        No Value        No Value        No Value        No Value     171.611E+06    -113.695E+06    -50.0234E+06    -22.1832E+06    -59.0033E+06     48.6492E+06     42.0480E+06
            1611     943.939E-06    -935.296E-06     24.8700E-06     125.000E-06     134.542E+06    -127.924E+06     12.3157E+06    -447.203E+03    -4.38446E+06     134.216E+03    -617.588E+03
            1612     943.613E-06    -935.296E-06    -1.52324E-06     125.000E-06     130.119E+06    -117.982E+06     14.7656E+06     4.84429E+06     755.187E+03    -3.49701E+06    -1.76600E+06
            6006        No Value        No Value        No Value        No Value     40.3472E+06    -29.3540E+06    -42.3739E+06    -605.073E+03     7.94981E+06     4.70247E+06    -707.208E+03
            6011        No Value        No Value        No Value        No Value     48.8628E+06    -20.8431E+06    -43.3744E+06     4.53332E+06     12.7710E+06     7.30039E+06    -1.31059E+06
            6894        No Value        No Value        No Value        No Value     40.3457E+06    -29.3538E+06    -42.3732E+06    -605.058E+03    -7.94828E+06     4.70210E+06     707.459E+03
            6899        No Value        No Value        No Value        No Value     48.8604E+06    -20.8430E+06    -43.3731E+06     4.53306E+06    -12.7699E+06     7.29962E+06     1.31068E+06
            7565        No Value        No Value        No Value        No Value     68.1812E+06    -67.0059E+06    -777.861E+03    -13.2343E+03     730.111E+03     8.36047E+06     4.77040E+03
            7570        No Value        No Value        No Value        No Value     68.7602E+06    -67.1566E+06    -590.183E+03    -17.0958E+03     1.21003E+06     9.20075E+06    -37.7415E+03
            7579     670.561E-06    -655.296E-06     67.9298E-06     125.000E-06     57.0731E+06    -60.0947E+06    -30.9375E+06    -71.8462E+03    -13.5079E+06    -88.6359E+03     49.7505E+03
            7580     672.454E-06    -655.296E-06     84.5965E-06     125.000E-06     79.0422E+06    -73.1604E+06    -14.8440E+06    -647.494E+03    -23.7641E+06     449.044E+03     148.769E+03
            7581     690.118E-06    -675.296E-06     67.9298E-06     125.000E-06     71.3345E+06    -74.7053E+06    -8.30218E+06     268.302E+03    -3.41890E+06     97.9714E+03    -11.8924E+03
            7582     691.958E-06    -675.296E-06     84.5965E-06     125.000E-06     73.5796E+06    -73.8431E+06    -1.20699E+06    -190.071E+03    -3.89329E+06     42.4996E+03    -244.672E+03
            7583     709.701E-06    -695.296E-06     67.9298E-06     125.000E-06     82.3111E+06    -83.5186E+06    -2.42286E+06    -59.2311E+03    -591.832E+03     143.310E+03     11.3277E+03
            7584     711.490E-06    -695.296E-06     84.5965E-06     125.000E-06     80.4708E+06    -80.8602E+06    -743.384E+03    -54.7684E+03    -466.356E+03     162.665E+03    -6.58847E+03
            7585     729.306E-06    -715.296E-06     67.9298E-06     125.000E-06     91.5101E+06    -91.8626E+06    -737.400E+03     24.6808E+03     184.016E+03     206.425E+03     8.06483E+03
            7586     731.047E-06    -715.296E-06     84.5965E-06     125.000E-06     90.7403E+06    -90.7786E+06    -90.0209E+03     10.5416E+03     168.642E+03     205.394E+03    -6.72602E+03
            7591        No Value        No Value        No Value        No Value     35.7157E+06    -40.2380E+06    -21.5624E+06        -651.086         999.871     4.43751E+06         127.460
            7596        No Value        No Value        No Value        No Value     47.9812E+06    -50.2439E+06    -7.32813E+06    -146.582E+03     1.02922E+03     5.78687E+06         89.3223
            7601        No Value        No Value        No Value        No Value     56.8445E+06    -56.4112E+06    -1.66674E+06    -112.467E+03         989.919     6.99516E+06         58.1162
            7606        No Value        No Value        No Value        No Value     62.8331E+06    -61.6350E+06    -480.598E+03    -46.0841E+03         965.239     7.77521E+06         34.3926
            7611        No Value        No Value        No Value        No Value     64.0356E+06    -19.2833E+06     14.9874E+06     15.6718E+06     11.7460E+06     26.4530E+06    -1.98050E+06
            7616        No Value        No Value        No Value        No Value     42.5003E+06    -34.2639E+06    -583.064E+03     196.364E+03     874.724E+03     14.5002E+06     759.701E+03
            7621        No Value        No Value        No Value        No Value     53.0960E+06    -47.7726E+06     784.390E+03     1.07254E+06     537.573E+03     12.1963E+06    -35.2868E+03
            7626        No Value        No Value        No Value        No Value     60.8894E+06    -58.0078E+06    -144.151E+03     82.8488E+03     126.666E+03     10.7405E+06     31.3878E+03
            7627        No Value        No Value        No Value        No Value     64.0407E+06    -19.2841E+06     14.9880E+06     15.6724E+06    -11.7466E+06     26.4560E+06     1.98070E+06
            7628        No Value        No Value        No Value        No Value     42.5035E+06    -34.2644E+06    -583.096E+03     196.305E+03    -874.780E+03     14.5030E+06    -759.753E+03
            7629        No Value        No Value        No Value        No Value     53.0984E+06    -47.7730E+06     784.430E+03     1.07255E+06    -537.650E+03     12.1991E+06     35.2950E+03
            7630        No Value        No Value        No Value        No Value     60.8913E+06    -58.0081E+06    -144.162E+03      82.839E+03    -126.689E+03     10.7434E+06    -31.3992E+03
            7647        No Value        No Value        No Value        No Value     68.7606E+06    -67.1566E+06    -590.322E+03    -17.0873E+03    -1.20912E+06     9.20216E+06     37.8013E+03
            7652        No Value        No Value        No Value        No Value     68.1813E+06    -67.0059E+06    -777.909E+03    -13.2383E+03    -728.401E+03     8.36106E+06    -4.74606E+03
            7657     667.352E-06    -655.296E-06     17.9298E-06     125.000E-06     79.0459E+06    -73.1615E+06    -14.8445E+06    -647.516E+03     23.7674E+06     449.086E+03    -148.795E+03
            7658     687.001E-06    -675.296E-06     17.9298E-06     125.000E-06     73.5807E+06    -73.8438E+06    -1.20698E+06    -190.076E+03     3.89588E+06     42.5123E+03     244.679E+03
            7659     706.670E-06    -695.296E-06     17.9298E-06     125.000E-06     80.4712E+06    -80.8606E+06    -743.416E+03    -54.7715E+03     468.837E+03     162.683E+03     6.58541E+03
            7660     726.357E-06    -715.296E-06     17.9298E-06     125.000E-06     90.7405E+06    -90.7789E+06    -90.0897E+03     10.5415E+03    -166.281E+03     205.412E+03     6.72472E+03
            7661     668.008E-06    -655.296E-06     34.5965E-06     125.000E-06     57.0758E+06    -60.0949E+06    -30.9381E+06    -71.8463E+03     13.5115E+06    -88.6337E+03    -49.7464E+03
            7662     687.638E-06    -675.296E-06     34.5965E-06     125.000E-06     71.3353E+06    -74.7056E+06    -8.30225E+06     268.313E+03     3.42238E+06     97.9807E+03     11.8987E+03
            7663     707.289E-06    -695.296E-06     34.5965E-06     125.000E-06     82.3113E+06    -83.5188E+06    -2.42290E+06    -59.2343E+03     595.227E+03     143.319E+03    -11.3242E+03
            7664     726.959E-06    -715.296E-06     34.5965E-06     125.000E-06     91.5101E+06    -91.8627E+06    -737.465E+03     24.6829E+03    -180.683E+03     206.436E+03    -8.06337E+03
            7673        No Value        No Value        No Value        No Value     85.2757E+06    -82.4402E+06     5.14819E+06    -844.367E+03     4.50034E+06    -552.105E+03    -2.96705E+06
            7678        No Value        No Value        No Value        No Value     77.6607E+06    -73.9399E+06    -317.556E+03     4.85236E+06     5.06814E+06    -750.864E+03    -2.14281E+06
            7683     927.056E-06    -915.456E-06     75.8188E-06     125.000E-06     132.714E+06    -128.921E+06     6.55909E+06     487.169E+03     3.70259E+06    -470.850E+03    -154.997E+03
            7684     929.545E-06    -915.617E-06     100.374E-06     125.000E-06     130.949E+06    -130.798E+06    -3.07380E+06    -917.779E+03     13.0991E+06     49.7901E+03    -121.901E+03
            7685     907.284E-06    -895.566E-06     74.1705E-06     125.000E-06     134.057E+06    -132.470E+06     2.71965E+06     64.8795E+03     3.91801E+06    -40.8570E+03    -3.22292E+03
            7686     909.710E-06    -895.837E-06     97.0779E-06     125.000E-06     135.925E+06    -134.593E+06    -756.733E+03     200.258E+03     11.9259E+06    -44.8792E+03     205.611E+03
            7687     887.492E-06    -875.631E-06     72.7129E-06     125.000E-06     134.128E+06    -133.817E+06     233.249E+03    -1.21584E+03     4.17501E+06    -6.01638E+03    -36.5775E+03
            7688     889.837E-06    -875.967E-06     94.1626E-06     125.000E-06     135.781E+06    -135.372E+06    -1.75055E+06    -32.7845E+03     10.7796E+06    -14.7167E+03    -6.55946E+03
            7689     867.686E-06    -855.657E-06     71.4471E-06     125.000E-06     133.196E+06    -133.499E+06    -945.704E+03     8.90752E+03     3.78913E+06     59.9004E+03    -20.5939E+03
            7690     869.936E-06    -856.018E-06     91.6311E-06     125.000E-06     135.240E+06    -135.205E+06    -2.00129E+06     16.6074E+03     9.53574E+06     46.6368E+03     9.84545E+03
            7691     847.871E-06    -835.648E-06     70.3743E-06     125.000E-06     130.957E+06    -131.691E+06    -1.72513E+06     3.32310E+03     3.20808E+06     100.151E+03    -22.3372E+03
            7692     850.018E-06    -836.001E-06     89.4854E-06     125.000E-06     133.311E+06    -133.641E+06    -2.14023E+06     6.95197E+03     7.99938E+06     96.4772E+03    -15.1358E+03
            7693     828.056E-06    -815.612E-06     69.4953E-06     125.000E-06     127.337E+06    -128.321E+06    -2.14737E+06     3.62151E+03     2.51025E+06     140.494E+03    -19.5763E+03
            7694     830.096E-06    -815.928E-06     87.7274E-06     125.000E-06     129.911E+06    -130.508E+06    -2.14056E+06     9.35685E+03     6.25916E+06     142.700E+03    -17.2726E+03
            7695     808.247E-06    -795.553E-06     68.8108E-06     125.000E-06     122.248E+06    -123.355E+06    -2.32859E+06     3.75127E+03     1.76965E+06     175.249E+03    -16.9468E+03
            7696     810.183E-06    -795.810E-06     86.3585E-06     125.000E-06     124.847E+06    -125.625E+06    -2.06377E+06     8.80199E+03     4.42534E+06     182.968E+03    -16.4716E+03
            7697     788.452E-06    -775.476E-06     68.3215E-06     125.000E-06     115.741E+06    -116.838E+06    -2.26384E+06     4.27297E+03     1.10469E+06     204.793E+03    -11.9793E+03
            7698     790.290E-06    -775.657E-06     85.3799E-06     125.000E-06     118.078E+06    -118.923E+06    -1.91189E+06     14.7647E+03     2.68641E+06     215.505E+03    -8.50921E+03
            7699     768.677E-06    -755.389E-06     68.0278E-06     125.000E-06     108.153E+06    -109.057E+06    -1.85095E+06     5.52417E+03     654.534E+03     224.881E+03    -5.84304E+03
            7700     770.434E-06    -755.482E-06     84.7924E-06     125.000E-06     109.633E+06    -110.422E+06    -1.65819E+06     9.36939E+03     1.35664E+06     234.468E+03        -186.282
            7719        No Value        No Value        No Value        No Value     85.8765E+06    -84.1591E+06     3.21305E+06     135.630E+03    -1.20128E+03    -272.513E+03        -879.727
            7724        No Value        No Value        No Value        No Value     86.6448E+06    -86.3243E+06     529.566E+03     8.17018E+03     1.70558E+03     1.69838E+06        -893.105
            7729        No Value        No Value        No Value        No Value     87.1828E+06    -87.3855E+06    -870.069E+03     91.3525E+03     1.19614E+03     3.25650E+06        -766.285
            7734        No Value        No Value        No Value        No Value     87.0937E+06    -87.4726E+06    -1.56123E+06     70.5935E+03     1.29046E+03     4.53406E+06        -682.793
            7739        No Value        No Value        No Value        No Value     86.0603E+06    -86.4701E+06    -1.98306E+06     51.6559E+03     1.26178E+03     5.54577E+06        -475.160
            7744        No Value        No Value        No Value        No Value     84.0832E+06    -84.3818E+06    -2.14894E+06     47.3713E+03     1.13273E+03     6.38525E+06        -316.528
            7749        No Value        No Value        No Value        No Value     81.1502E+06    -81.2467E+06    -2.14516E+06     42.0254E+03     1.05527E+03     7.08312E+06        -194.096
            7754        No Value        No Value        No Value        No Value     77.3558E+06    -77.1480E+06    -1.93385E+06     34.9024E+03     1.01833E+03     7.63317E+06        -104.933
            7759        No Value        No Value        No Value        No Value     72.9082E+06    -72.2910E+06    -1.46197E+06     22.5172E+03     1.00095E+03     7.98966E+06        -38.6882
            7764        No Value        No Value        No Value        No Value     118.511E+06    -102.214E+06    -2.98452E+06    -3.51522E+06     26.7189E+06     26.4141E+06    -2.04034E+06
            7769        No Value        No Value        No Value        No Value     104.634E+06    -94.0089E+06    -6.62453E+06    -1.11766E+06     22.6750E+06     19.5448E+06    -6.06212E+06
            7774        No Value        No Value        No Value        No Value     101.428E+06    -93.2181E+06    -3.77924E+06    -641.489E+03     19.3487E+06     16.7825E+06    -3.15299E+06
            7779        No Value        No Value        No Value        No Value     99.1774E+06    -92.7918E+06    -3.08049E+06    -361.509E+03     16.5339E+06     15.2003E+06    -2.79528E+06
            7784        No Value        No Value        No Value        No Value     97.1567E+06    -92.0847E+06    -2.07066E+06    -253.400E+03     13.6060E+06     14.1613E+06    -2.08311E+06
            7789        No Value        No Value        No Value        No Value     94.4270E+06    -90.3899E+06    -1.34635E+06    -199.106E+03     10.6771E+06     13.3485E+06    -1.59920E+06
            7794        No Value        No Value        No Value        No Value     90.6998E+06    -87.4447E+06    -768.443E+03    -187.707E+03      7.7476E+06     12.6366E+06    -1.13673E+06
            7799        No Value        No Value        No Value        No Value     85.7584E+06    -83.0708E+06    -392.701E+03    -199.371E+03     4.92559E+06     11.9505E+06    -728.764E+03
            7804        No Value        No Value        No Value        No Value     79.3578E+06    -77.0500E+06    -162.363E+03    -283.109E+03     2.30850E+06     11.2377E+06    -348.223E+03
            7809        No Value        No Value        No Value        No Value     79.3586E+06    -77.0494E+06    -162.399E+03    -282.999E+03    -2.30912E+06     11.2408E+06     348.397E+03
            7810        No Value        No Value        No Value        No Value     85.7584E+06    -83.0694E+06    -392.730E+03    -199.266E+03    -4.92600E+06     11.9533E+06     728.998E+03
            7811        No Value        No Value        No Value        No Value     90.6989E+06    -87.4426E+06    -768.481E+03    -187.523E+03    -7.74779E+06     12.6391E+06     1.13698E+06
            7812        No Value        No Value        No Value        No Value     94.4252E+06    -90.3871E+06    -1.34634E+06    -198.883E+03    -10.6769E+06     13.3504E+06     1.59948E+06
            7813        No Value        No Value        No Value        No Value     97.1536E+06    -92.0809E+06    -2.07065E+06    -253.167E+03    -13.6055E+06     14.1626E+06     2.08321E+06
            7814        No Value        No Value        No Value        No Value     99.1721E+06    -92.7864E+06    -3.08007E+06    -361.260E+03    -16.5326E+06     15.2004E+06     2.79574E+06
            7815        No Value        No Value        No Value        No Value     101.418E+06    -93.2082E+06    -3.78002E+06    -641.225E+03    -19.3471E+06     16.7822E+06     3.15119E+06
            7816        No Value        No Value        No Value        No Value     104.609E+06    -93.9889E+06    -6.61912E+06    -1.12000E+06    -22.6645E+06     19.5387E+06     6.06718E+06
            7817        No Value        No Value        No Value        No Value     118.422E+06    -102.121E+06    -2.97831E+06    -3.49462E+06    -26.7087E+06     26.3928E+06     2.00761E+06
            7854        No Value        No Value        No Value        No Value     77.7112E+06    -74.0454E+06    -407.286E+03     4.80328E+06    -5.13223E+06    -698.736E+03     2.12762E+06
            7859        No Value        No Value        No Value        No Value     85.2769E+06    -82.4070E+06     5.19209E+06    -817.059E+03    -4.48252E+06    -568.960E+03     2.96795E+06
            7864     765.959E-06    -755.482E-06     17.7338E-06     125.000E-06     109.633E+06    -110.422E+06    -1.65803E+06     9.36713E+03    -1.35422E+06     234.485E+03         194.981
            7865     785.852E-06    -775.657E-06     17.1463E-06     125.000E-06     118.078E+06    -118.922E+06    -1.91153E+06     14.7597E+03    -2.68410E+06     215.516E+03     8.52113E+03
            7866     805.729E-06    -795.810E-06     16.1676E-06     125.000E-06     124.846E+06    -125.624E+06    -2.06326E+06     8.80052E+03    -4.42302E+06     182.975E+03     16.4878E+03
            7867     825.580E-06    -815.928E-06     14.7987E-06     125.000E-06     129.909E+06    -130.507E+06    -2.13989E+06     9.34111E+03    -6.25673E+06     142.688E+03     17.2888E+03
            7868     845.395E-06    -836.001E-06     13.0407E-06     125.000E-06     133.309E+06    -133.638E+06    -2.13916E+06     6.99228E+03    -7.99661E+06     96.4788E+03     15.1613E+03
            7869     865.165E-06    -856.018E-06     10.8950E-06     125.000E-06     135.236E+06    -135.201E+06    -1.99984E+06     16.4807E+03    -9.53208E+06     46.5085E+03    -9.86729E+03
            7870     884.880E-06    -875.967E-06     8.36347E-06     125.000E-06     135.778E+06    -135.367E+06    -1.74498E+06    -32.1877E+03    -10.7733E+06    -14.6566E+03     6.67829E+03
            7871     904.532E-06    -895.837E-06     5.44825E-06     125.000E-06     135.921E+06    -134.589E+06    -751.589E+03     198.975E+03    -11.9141E+06    -45.7536E+03    -205.927E+03
            7872     924.112E-06    -915.617E-06     2.15175E-06     125.000E-06     131.005E+06    -130.824E+06    -3.01239E+06    -908.913E+03    -13.0831E+06     41.1834E+03     123.353E+03
            7873     766.438E-06    -755.389E-06     34.4985E-06     125.000E-06     108.153E+06    -109.057E+06    -1.85086E+06     5.52497E+03    -651.143E+03     224.889E+03     5.84312E+03
            7874     786.231E-06    -775.476E-06     34.2047E-06     125.000E-06     115.741E+06    -116.838E+06    -2.26358E+06     4.27315E+03    -1.10140E+06     204.800E+03     11.9759E+03
            7875     806.018E-06    -795.553E-06     33.7154E-06     125.000E-06     122.248E+06    -123.355E+06    -2.32820E+06     3.74879E+03    -1.76641E+06     175.250E+03     16.9427E+03
            7876     825.796E-06    -815.612E-06     33.0309E-06     125.000E-06     127.336E+06    -128.320E+06    -2.14685E+06     3.62281E+03    -2.50698E+06     140.496E+03     19.5598E+03
            7877     845.557E-06    -835.648E-06     32.1519E-06     125.000E-06     130.956E+06     -131.69E+06    -1.72431E+06     3.31824E+03    -3.20460E+06     100.126E+03     22.3268E+03
            7878     865.297E-06    -855.657E-06     31.0791E-06     125.000E-06     133.195E+06    -133.498E+06    -944.200E+03     8.92345E+03    -3.78537E+06     59.9427E+03     20.5068E+03
            7879     885.011E-06    -875.631E-06     29.8133E-06     125.000E-06     134.128E+06    -133.815E+06     235.963E+03    -1.38981E+03    -4.17150E+06    -6.19823E+03     36.6967E+03
            7880     904.692E-06    -895.566E-06     28.3557E-06     125.000E-06     134.063E+06    -132.471E+06     2.72762E+06     65.7368E+03    -3.91955E+06    -40.2228E+03     2.49249E+03
            7881     924.337E-06    -915.456E-06     26.7075E-06     125.000E-06     132.700E+06    -128.921E+06     6.53834E+06     479.894E+03    -3.71134E+06    -469.825E+03     157.561E+03
           22425        No Value        No Value        No Value        No Value     38.7527E+06    -40.7988E+06    -19.7553E+06     242.910E+03    -6.91561E+06     5.43120E+06     1.02055E+06
           22430        No Value        No Value        No Value        No Value     51.1035E+06    -48.0136E+06    -9.85332E+06    -1.10387E+06    -10.2280E+06     10.5358E+06     2.70389E+06
           22435        No Value        No Value        No Value        No Value     48.8469E+06    -49.5945E+06    -4.88335E+06     152.936E+03    -814.537E+03     6.59414E+06     993.938E+03
           22440        No Value        No Value        No Value        No Value     49.3306E+06    -46.5307E+06    -797.496E+03     76.8862E+03    -195.683E+03     9.80716E+06     1.18927E+06
           22445        No Value        No Value        No Value        No Value     56.4160E+06    -55.5321E+06    -1.26786E+06    -133.070E+03     464.076E+03     7.60190E+06     629.562E+03
           22450        No Value        No Value        No Value        No Value     54.7499E+06    -52.5796E+06    -405.268E+03    -163.594E+03     1.04177E+06     9.26578E+06     779.217E+03
           22455        No Value        No Value        No Value        No Value     62.6269E+06    -61.2009E+06    -350.152E+03    -43.9269E+03     668.382E+03     8.14472E+06     271.019E+03
           22460        No Value        No Value        No Value        No Value     62.0275E+06    -59.9951E+06    -68.8827E+03    -67.4745E+03     940.247E+03     9.18750E+06     298.520E+03
           22461        No Value        No Value        No Value        No Value     51.1060E+06    -48.0146E+06    -9.85365E+06    -1.10389E+06     10.2295E+06     10.5370E+06    -2.70387E+06
           22462        No Value        No Value        No Value        No Value     49.3319E+06    -46.5313E+06    -797.457E+03     76.9122E+03     196.766E+03     9.80845E+06    -1.18919E+06
           22463        No Value        No Value        No Value        No Value     54.7508E+06    -52.5799E+06    -405.267E+03    -163.587E+03    -1.04077E+06     9.26712E+06    -779.173E+03
           22464        No Value        No Value        No Value        No Value     62.0283E+06    -59.9953E+06    -68.9202E+03    -67.4753E+03    -939.338E+03     9.18890E+06    -298.476E+03
           22481        No Value        No Value        No Value        No Value     38.7541E+06    -40.7990E+06    -19.7556E+06     242.938E+03     6.91753E+06     5.43165E+06    -1.02034E+06
           22482        No Value        No Value        No Value        No Value     48.8475E+06    -49.5947E+06    -4.88336E+06     152.958E+03     816.351E+03     6.59466E+06    -993.790E+03
           22483        No Value        No Value        No Value        No Value     56.4164E+06    -55.5323E+06    -1.26786E+06    -133.067E+03    -462.341E+03     7.60247E+06    -629.465E+03
           22484        No Value        No Value        No Value        No Value     62.6272E+06     -61.201E+06    -350.188E+03    -43.9234E+03    -666.704E+03     8.14531E+06    -270.955E+03
           22501        No Value        No Value        No Value        No Value     85.1845E+06    -83.8264E+06     1.52145E+06     196.105E+03     4.61536E+06     879.610E+03    -2.29677E+06
           22506        No Value        No Value        No Value        No Value     87.6819E+06    -84.8943E+06    -7.21822E+06     254.505E+03     15.3250E+06     6.53053E+06    -6.41941E+06
           22511        No Value        No Value        No Value        No Value     87.0482E+06    -86.5163E+06    -246.103E+03     251.428E+03     4.39343E+06     2.80135E+06    -1.80806E+06
           22516        No Value        No Value        No Value        No Value     91.5181E+06    -88.9492E+06    -2.84548E+06     369.153E+03     12.7781E+06     7.15605E+06    -3.13195E+06
           22521        No Value        No Value        No Value        No Value     87.9263E+06    -87.9161E+06    -1.38738E+06     57.3956E+03     4.36443E+06     4.23429E+06    -1.38352E+06
           22526        No Value        No Value        No Value        No Value     91.2961E+06    -89.5943E+06    -2.79153E+06     201.947E+03     10.6991E+06     7.51305E+06    -2.44041E+06
           22531        No Value        No Value        No Value        No Value     87.9106E+06    -88.0083E+06    -1.79213E+06     84.2675E+03     3.78616E+06     5.27943E+06    -1.01787E+06
           22536        No Value        No Value        No Value        No Value     90.9627E+06    -89.6211E+06    -2.47832E+06     129.740E+03     9.12201E+06     7.88402E+06    -1.82694E+06
           22541        No Value        No Value        No Value        No Value     86.8921E+06    -87.0311E+06    -2.05485E+06     56.4123E+03     3.16714E+06     6.14728E+06    -807.244E+03
           22546        No Value        No Value        No Value        No Value     89.8105E+06    -88.7103E+06    -2.25784E+06     97.8364E+03     7.56939E+06      8.2496E+06    -1.47237E+06
           22551        No Value        No Value        No Value        No Value     84.9168E+06    -84.9752E+06    -2.13056E+06     51.9791E+03     2.52240E+06     6.87263E+06    -649.272E+03
           22556        No Value        No Value        No Value        No Value     87.7572E+06    -86.7854E+06    -2.01456E+06     75.0561E+03     5.99222E+06     8.59694E+06    -1.18334E+06
           22561        No Value        No Value        No Value        No Value     81.9498E+06    -81.8415E+06    -2.07452E+06     45.7926E+03     1.87885E+06     7.48262E+06     -516.01E+03
           22566        No Value        No Value        No Value        No Value     84.6423E+06    -83.7011E+06    -1.76850E+06     64.0093E+03     4.41616E+06     8.88332E+06    -925.303E+03
           22571        No Value        No Value        No Value        No Value     78.0319E+06    -77.6622E+06    -1.86474E+06     38.7528E+03     1.30805E+06     7.96374E+06    -377.399E+03
           22576        No Value        No Value        No Value        No Value     80.3968E+06    -79.3864E+06    -1.51133E+06     50.2703E+03     2.94251E+06     9.08712E+06    -665.978E+03
           22581        No Value        No Value        No Value        No Value     73.3524E+06    -72.6115E+06    -1.42433E+06     18.8144E+03     910.015E+03     8.27712E+06    -210.313E+03
           22586        No Value        No Value        No Value        No Value     74.9639E+06    -73.7736E+06    -1.21754E+06     25.6867E+03     1.78279E+06     9.19191E+06    -378.689E+03
           22591        No Value        No Value        No Value        No Value     74.9641E+06    -73.7734E+06    -1.21750E+06     25.6757E+03    -1.78186E+06     9.19325E+06     378.723E+03
           22592        No Value        No Value        No Value        No Value     80.3964E+06    -79.3857E+06    -1.51121E+06     50.2540E+03    -2.94159E+06     9.08832E+06     665.961E+03
           22593        No Value        No Value        No Value        No Value     84.6413E+06    -83.6999E+06    -1.76833E+06     63.9828E+03    -4.41510E+06     8.88431E+06     925.213E+03
           22594        No Value        No Value        No Value        No Value     87.7555E+06    -86.7837E+06    -2.01431E+06     75.0133E+03    -5.99092E+06     8.59762E+06     1.18313E+06
           22595        No Value        No Value        No Value        No Value     89.8080E+06    -88.7079E+06     -2.2574E+06     97.7836E+03    -7.56770E+06     8.24981E+06     1.47197E+06
           22596        No Value        No Value        No Value        No Value     90.9589E+06    -89.6177E+06    -2.47739E+06     129.596E+03    -9.11943E+06     7.88384E+06     1.82616E+06
           22597        No Value        No Value        No Value        No Value     91.2917E+06    -89.5901E+06    -2.78825E+06     202.113E+03    -10.6946E+06     7.51179E+06     2.43911E+06
           22598        No Value        No Value        No Value        No Value     91.5129E+06    -88.9464E+06    -2.84029E+06     367.631E+03    -12.7690E+06     7.15636E+06     3.12865E+06
           22599        No Value        No Value        No Value        No Value     87.7169E+06    -84.9208E+06    -7.17273E+06     259.809E+03    -15.3099E+06     6.53248E+06     6.41433E+06
           22636        No Value        No Value        No Value        No Value     73.3524E+06    -72.6114E+06    -1.42432E+06     18.8103E+03    -908.258E+03     8.27766E+06     210.265E+03
           22637        No Value        No Value        No Value        No Value     78.0317E+06    -77.6619E+06    -1.86465E+06     38.7431E+03    -1.30628E+06     7.96422E+06     377.236E+03
           22638        No Value        No Value        No Value        No Value     81.9493E+06    -81.8410E+06    -2.07438E+06     45.7775E+03    -1.87699E+06     7.48299E+06     515.697E+03
           22639        No Value        No Value        No Value        No Value     84.9159E+06    -84.9744E+06    -2.13037E+06     51.9531E+03    -2.52037E+06     6.87286E+06     648.742E+03
           22640        No Value        No Value        No Value        No Value     86.8909E+06    -87.0300E+06    -2.05446E+06     56.3998E+03    -3.16479E+06     6.14731E+06     806.417E+03
           22641        No Value        No Value        No Value        No Value     87.9092E+06    -88.0071E+06    -1.79140E+06     84.1694E+03    -3.78345E+06     5.27920E+06     1.01665E+06
           22642        No Value        No Value        No Value        No Value     87.9259E+06    -87.9150E+06    -1.38501E+06     57.3555E+03    -4.36175E+06     4.23413E+06     1.38191E+06
           22643        No Value        No Value        No Value        No Value     87.0518E+06    -86.5175E+06    -241.938E+03     251.908E+03    -4.39501E+06     2.80119E+06     1.80644E+06
           22644        No Value        No Value        No Value        No Value     85.1778E+06    -83.8267E+06     1.51139E+06     190.112E+03    -4.62073E+06     881.274E+03     2.29895E+06
           57248        No Value        No Value        No Value        No Value     38.2308E+06    -28.2236E+06    -41.8576E+06    -81.8161E+03     3.95683E+06     4.19892E+06    -259.067E+03
           57249        No Value        No Value        No Value        No Value     45.9666E+06    -32.1848E+06    -52.0351E+06     418.478E+03     1.09403E+03     1.68339E+06         82.7012
           57252        No Value        No Value        No Value        No Value     51.1581E+06    -34.9245E+06    -54.0523E+06    -478.332E+03     11.3569E+06     2.47558E+06    -320.406E+03
           57253     648.898E-06    -635.296E-06     42.9298E-06     125.000E-06     57.5648E+06    -39.4438E+06    -64.4926E+06    -83.5312E+03     7.09504E+06     124.313E+03    -121.813E+03
           57310        No Value        No Value        No Value        No Value     45.3259E+06    -25.5170E+06    -44.2275E+06     1.46688E+06     10.5222E+06     6.55985E+06    -1.83466E+06
           57312        No Value        No Value        No Value        No Value     63.0288E+06    -24.1261E+06    -56.8344E+06     2.92495E+06     20.4180E+06     2.74585E+06    -449.783E+03
           57313     648.009E-06    -635.296E-06     26.2632E-06     125.000E-06     69.9804E+06    -34.0374E+06    -69.3657E+06     81.8573E+03     20.6516E+06    -256.592E+03     44.5429E+03
           57370        No Value        No Value        No Value        No Value     82.2349E+06    -54.6747E+06    -51.7456E+06    -7.17058E+06     33.4781E+06     19.7992E+06    -5.71919E+06
           57372        No Value        No Value        No Value        No Value     146.475E+06    -95.3036E+06    -76.2861E+06    -12.5907E+06     67.3165E+06     25.9278E+06    -8.43845E+06
           57373     647.547E-06    -635.296E-06     9.59650E-06     125.000E-06     119.269E+06    -63.6930E+06    -78.4054E+06    -1.49179E+06     54.8858E+06     7.62838E+06    -2.04942E+06
           64719        No Value        No Value        No Value        No Value     38.2300E+06    -28.2235E+06    -41.8573E+06    -81.8094E+03    -3.95528E+06     4.19873E+06     259.351E+03
           64724     650.213E-06    -635.296E-06     59.5965E-06     125.000E-06     57.5633E+06    -39.4438E+06    -64.4920E+06    -83.5304E+03    -7.09224E+06     124.297E+03     121.820E+03
           64725        No Value        No Value        No Value        No Value     51.1560E+06    -34.9244E+06    -54.0513E+06    -478.317E+03    -11.3547E+06     2.47538E+06     320.538E+03
           64752        No Value        No Value        No Value        No Value     45.3239E+06    -25.5167E+06    -44.2265E+06     1.46679E+06    -10.5209E+06     6.55924E+06     1.83477E+06
           64757     651.952E-06    -635.296E-06     76.2632E-06     125.000E-06     69.9767E+06    -34.0377E+06    -69.3639E+06      81.859E+03    -20.6489E+06    -256.580E+03    -44.5452E+03
           64758        No Value        No Value        No Value        No Value     63.0255E+06    -24.1263E+06    -56.8325E+06     2.92479E+06    -20.4162E+06     2.74553E+06     449.832E+03
           64785        No Value        No Value        No Value        No Value     82.2303E+06    -54.6722E+06    -51.7436E+06    -7.17010E+06    -33.4763E+06     19.7974E+06     5.71878E+06
           64790     654.111E-06    -635.296E-06     92.9298E-06     125.000E-06     119.263E+06    -63.6914E+06    -78.4022E+06    -1.49172E+06    -54.8827E+06      7.6279E+06     2.04928E+06
           64791        No Value        No Value        No Value        No Value     146.468E+06    -95.2991E+06    -76.2828E+06    -12.5899E+06    -67.3134E+06     25.9258E+06     8.43777E+06
           69218        No Value        No Value        No Value        No Value     36.6565E+06    -40.4258E+06    -20.4858E+06     157.704E+03    -3.25501E+06     4.99694E+06     531.683E+03
           69220        No Value        No Value        No Value        No Value     33.5887E+06    -33.6861E+06    -31.6789E+06     117.923E+03         896.813     4.05302E+06         143.277
           69221        No Value        No Value        No Value        No Value     36.1553E+06    -33.9267E+06    -30.9841E+06     260.519E+03    -7.19032E+06     4.91994E+06     884.437E+03
           69222        No Value        No Value        No Value        No Value     43.2148E+06    -49.5989E+06    -27.7823E+06    -18.0225E+03     1.39919E+03     2.21480E+06         66.5098
           69223     669.768E-06    -655.296E-06     59.5965E-06     125.000E-06     52.6919E+06    -59.4233E+06    -32.3078E+06    -16.9335E+03    -6.35785E+06     28.3334E+03    -19.0940E+03
           69224        No Value        No Value        No Value        No Value     47.4878E+06    -50.4467E+06    -25.3464E+06     85.5321E+03    -10.2117E+06     2.67128E+06     535.151E+03
           69225     659.287E-06    -645.296E-06     51.2632E-06     125.000E-06     48.8395E+06    -48.7795E+06    -49.1967E+06    -150.882E+03     1.60888E+03    -114.197E+03         6.08691
           69226     660.792E-06    -645.296E-06     67.9298E-06     125.000E-06     54.4134E+06    -48.6001E+06    -48.2404E+06     391.747E+03    -13.8626E+06     61.1623E+03     7.77465E+03
           69241        No Value        No Value        No Value        No Value     44.0342E+06    -43.8717E+06    -14.1991E+06     3.34963E+03    -8.36419E+06     8.24950E+06     1.27549E+06
           69243        No Value        No Value        No Value        No Value     44.9133E+06    -36.9284E+06    -25.7760E+06     1.25004E+06    -13.9745E+06     9.27517E+06     1.80105E+06
           69244     671.456E-06    -655.296E-06     76.2632E-06     125.000E-06     65.7842E+06    -65.6674E+06    -22.3215E+06     187.181E+03    -17.6295E+06     442.165E+03     63.3879E+03
           69245        No Value        No Value        No Value        No Value     63.7965E+06    -60.5870E+06    -12.3486E+06    -875.680E+03    -16.9961E+06     5.49242E+06     1.42633E+06
           69246     662.713E-06    -645.296E-06     84.5965E-06     125.000E-06     70.5220E+06    -53.2978E+06    -41.2921E+06    -151.505E+03    -29.5528E+06    -739.759E+03    -270.479E+03
           69261        No Value        No Value        No Value        No Value     50.8119E+06    -34.2754E+06     1.78881E+06     6.81359E+06     317.268E+03     18.1658E+06     940.175E+03
           69263        No Value        No Value        No Value        No Value     74.3779E+06    -52.5409E+06    -18.9519E+06     282.432E+03    -15.9117E+06     29.1965E+06     4.86394E+06
           69264     673.553E-06    -655.296E-06     92.9298E-06     125.000E-06     62.7447E+06    -58.9352E+06     2.19677E+06     549.183E+03    -7.92507E+06     1.00506E+06    -575.977E+03
           69265        No Value        No Value        No Value        No Value     58.3561E+06    -30.9326E+06     17.8438E+06     9.29239E+06     11.2948E+06     14.3456E+06    -1.71959E+06
           69266     665.046E-06    -645.296E-06     101.263E-06     125.000E-06     80.9811E+06    -68.1173E+06    -26.9926E+06     2.38181E+06    -28.0336E+06     11.9118E+06     2.04256E+06
           69291        No Value        No Value        No Value        No Value     48.2411E+06    -49.8426E+06    -6.26444E+06    -23.8113E+03    -564.199E+03     6.19727E+06     475.417E+03
           69293        No Value        No Value        No Value        No Value     41.0996E+06    -45.2339E+06    -13.9101E+06     31.6645E+03     1.01601E+03     5.06300E+06         108.146
           69294        No Value        No Value        No Value        No Value     43.2748E+06    -46.2849E+06    -12.3235E+06    -211.270E+03    -3.86788E+06     6.14456E+06     1.00860E+06
           69295        No Value        No Value        No Value        No Value     58.3101E+06    -62.4340E+06    -9.78074E+06    -118.481E+03     1.45588E+03     2.90345E+06         46.4893
           69296     689.348E-06    -675.296E-06     59.5965E-06     125.000E-06     70.0176E+06    -74.5719E+06    -10.5166E+06     40.5582E+03    -1.91086E+06     55.9485E+03     5.02409E+03
           69297        No Value        No Value        No Value        No Value     59.6646E+06    -62.1499E+06    -6.59277E+06     210.619E+03    -2.11672E+06     3.34605E+06     491.023E+03
           69298     678.875E-06    -665.296E-06     51.2632E-06     125.000E-06     58.9844E+06    -66.7962E+06    -22.3248E+06     113.904E+03     1.84328E+03     5.06762E+03         5.41992
           69299     680.336E-06    -665.296E-06     67.9298E-06     125.000E-06     63.0612E+06    -69.1246E+06    -19.6179E+06    -493.723E+03    -8.42735E+06     33.3876E+03        -229.297
           69314        No Value        No Value        No Value        No Value     48.5688E+06    -48.3044E+06    -3.83813E+06    -207.965E+03    -938.216E+03     8.16098E+06     1.23025E+06
           69316        No Value        No Value        No Value        No Value     45.9687E+06    -44.8352E+06    -5.86247E+06    -99.1412E+03    -3.10561E+06     9.85918E+06     2.14706E+06
           69317     690.988E-06    -675.296E-06     76.2632E-06     125.000E-06     71.6904E+06    -74.4255E+06    -6.20589E+06    -389.070E+03    -4.26982E+06     46.6727E+03     5.09081E+03
           69318        No Value        No Value        No Value        No Value     60.4819E+06    -60.1869E+06    -1.00224E+06    -56.5923E+03    -2.04449E+06     4.92483E+06     472.300E+03
           69319     682.202E-06    -665.296E-06     84.5965E-06     125.000E-06     69.4697E+06    -70.8898E+06    -8.84852E+06    -36.6047E+03    -10.7659E+06     269.384E+03     17.5732E+03
           69334        No Value        No Value        No Value        No Value     45.9299E+06    -40.2321E+06     466.125E+03     486.491E+03     884.726E+03     12.1866E+06     860.366E+03
           69336        No Value        No Value        No Value        No Value     49.0122E+06    -27.5289E+06     3.31925E+06     5.93955E+06     1.54955E+06     21.2519E+06    -501.029E+03
           69337     693.026E-06    -675.296E-06     92.9298E-06     125.000E-06     68.2042E+06    -67.3592E+06     932.631E+03     619.477E+03    -895.376E+03     624.829E+03    -113.504E+03
           69338        No Value        No Value        No Value        No Value     49.6664E+06    -47.6280E+06    -455.526E+03     336.104E+03     775.003E+03     7.82708E+06     518.092E+03
           69339     684.469E-06    -665.296E-06     101.263E-06     125.000E-06     56.5106E+06    -54.8181E+06     4.38902E+06    -1.51523E+06     597.910E+03     29.5772E+03    -730.203E+03
           69364        No Value        No Value        No Value        No Value     56.6427E+06    -55.9221E+06    -1.37713E+06    -74.1080E+03     248.603E+03     7.30171E+06     313.648E+03
           69366        No Value        No Value        No Value        No Value     52.1564E+06    -53.1242E+06    -4.52768E+06    -72.9096E+03     1.00532E+03     6.38519E+06         73.2554
           69367        No Value        No Value        No Value        No Value     52.6167E+06    -52.6179E+06    -3.08943E+06    -22.7565E+03    -346.612E+03     7.11387E+06     795.411E+03
           69368        No Value        No Value        No Value        No Value     69.3527E+06    -70.2975E+06    -2.45212E+06    -51.9260E+03     1.41732E+03     3.56570E+06         30.3167
           69369     708.952E-06    -695.296E-06     59.5965E-06     125.000E-06     82.4674E+06    -83.7898E+06    -2.74439E+06     25.4963E+03    -259.345E+03     142.137E+03     7.80156E+03
           69370        No Value        No Value        No Value        No Value     68.9020E+06    -69.5253E+06    -1.84536E+06    -96.1506E+03    -63.8779E+03     3.87260E+06     320.445E+03
           69371     698.486E-06    -685.296E-06     51.2632E-06     125.000E-06     75.5518E+06    -79.1193E+06    -7.77933E+06     35.3530E+03     1.85731E+03     88.3612E+03         2.82813
           69372     699.907E-06    -685.296E-06     67.9298E-06     125.000E-06     76.7028E+06    -79.0955E+06    -5.36702E+06     95.1433E+03    -2.21722E+06     114.064E+03     2.26431E+03
           69387        No Value        No Value        No Value        No Value     55.6391E+06    -54.0579E+06    -724.795E+03    -92.9412E+03     752.962E+03     8.44828E+06     669.178E+03
           69389        No Value        No Value        No Value        No Value     51.7462E+06    -49.4136E+06    -845.349E+03     11.3264E+03     790.043E+03     9.50044E+06     982.448E+03
           69390     710.547E-06    -695.296E-06     76.2632E-06     125.000E-06     81.4860E+06    -82.1429E+06    -1.38028E+06     38.8753E+03    -437.458E+03     173.050E+03    -4.35118E+03
           69391        No Value        No Value        No Value        No Value     66.8863E+06    -66.7199E+06    -574.326E+03    -109.181E+03     287.706E+03     4.71422E+06     386.314E+03
           69392     701.720E-06    -685.296E-06     84.5965E-06     125.000E-06     76.2621E+06    -76.9038E+06    -1.38788E+06    -27.8332E+03    -1.56842E+06     110.507E+03    -32.4762E+03
           69407        No Value        No Value        No Value        No Value     53.7226E+06    -50.2236E+06    -12.3849E+03     350.423E+03     756.415E+03     10.7134E+06     412.681E+03
           69409        No Value        No Value        No Value        No Value     47.8200E+06    -42.3347E+06    -1.11444E+06     279.395E+03    -39.2652E+03     13.2678E+06     215.026E+03
           69410     712.529E-06    -695.296E-06     92.9298E-06     125.000E-06     78.2500E+06    -78.3894E+06    -183.531E+03    -102.041E+03    -232.111E+03     308.550E+03    -43.3577E+03
           69411        No Value        No Value        No Value        No Value     63.4420E+06    -61.7377E+06     868.984E+03     608.296E+03     440.705E+03     6.34777E+06    -61.3921E+03
           69412     703.924E-06    -685.296E-06     101.263E-06     125.000E-06     68.3759E+06    -68.8653E+06    -1.17131E+06     108.511E+03    -750.327E+03     965.729E+03     90.1068E+03
           69437        No Value        No Value        No Value        No Value     62.7148E+06    -61.4187E+06    -432.937E+03    -49.3972E+03     323.136E+03     7.95746E+06     139.132E+03
           69439        No Value        No Value        No Value        No Value     59.7577E+06    -58.9629E+06    -1.12297E+06    -78.9464E+03         975.099     7.39492E+06         46.1631
           69440        No Value        No Value        No Value        No Value     59.4977E+06    -58.3667E+06    -847.354E+03     -90.255E+03     517.973E+03     7.87344E+06     444.733E+03
           69441        No Value        No Value        No Value        No Value     76.8636E+06    -76.9460E+06    -772.155E+03    -19.0652E+03     1.39192E+03     3.98395E+06         17.9141
           69442     728.577E-06    -715.296E-06     59.5965E-06     125.000E-06     91.5967E+06    -92.0582E+06    -938.587E+03     6.65968E+03     77.2376E+03     198.371E+03     2.92831E+03
           69443        No Value        No Value        No Value        No Value     76.6028E+06    -76.5318E+06    -543.776E+03    -9.62304E+03     426.199E+03     4.17557E+06     139.542E+03
           69444     718.119E-06    -705.296E-06     51.2632E-06     125.000E-06     87.0516E+06    -88.1376E+06    -2.22401E+06     8.16290E+03     1.82817E+03     162.066E+03         1.83691
           69445     719.501E-06    -705.296E-06     67.9298E-06     125.000E-06     86.8558E+06    -87.6657E+06    -1.63068E+06    -15.2869E+03    -269.988E+03     172.429E+03     11.0725E+03
           69460        No Value        No Value        No Value        No Value     62.3128E+06    -60.6308E+06    -271.509E+03    -74.4295E+03     792.938E+03     8.67125E+06     290.307E+03
           69462        No Value        No Value        No Value        No Value     58.4029E+06    -56.3425E+06    -277.224E+03    -117.409E+03     994.242E+03     9.21470E+06     543.149E+03
           69463     730.129E-06    -715.296E-06     76.2632E-06     125.000E-06     91.1001E+06    -91.3451E+06    -491.402E+03    -3.25673E+03     182.192E+03     216.289E+03     7.09138E+03
           69464        No Value        No Value        No Value        No Value     75.7775E+06    -75.3869E+06    -79.4518E+03    -28.4664E+03     554.445E+03     4.69645E+06     145.897E+03
           69465     721.265E-06    -705.296E-06     84.5965E-06     125.000E-06     85.6217E+06    -85.8352E+06    -427.962E+03    -4.17765E+03    -179.207E+03     211.177E+03    -25.4834E+03
           69480        No Value        No Value        No Value        No Value     61.4509E+06    -58.9679E+06    -26.9647E+03     30.8075E+03     576.022E+03     9.96135E+06     159.996E+03
           69482        No Value        No Value        No Value        No Value     56.8904E+06    -52.8822E+06     254.133E+03     474.902E+03     310.469E+03     11.5610E+06     21.9044E+03
           69483     732.058E-06    -715.296E-06     92.9298E-06     125.000E-06     89.7084E+06    -89.6889E+06     12.7073E+03     22.1865E+03     53.2370E+03     342.655E+03         249.756
           69484        No Value        No Value        No Value        No Value     73.9191E+06    -73.3263E+06    -130.080E+03     27.8146E+03     8.95340E+03     5.61939E+06     24.5140E+03
           69485     723.409E-06    -705.296E-06     101.263E-06     125.000E-06     82.3862E+06    -82.2307E+06     363.509E+03    -60.0505E+03     81.7365E+03     393.369E+03    -65.2141E+03
           69510        No Value        No Value        No Value        No Value     68.1266E+06    -67.0159E+06    -788.353E+03    -8.23145E+03     360.022E+03     8.21524E+06     2.61634E+03
           69512        No Value        No Value        No Value        No Value     65.4208E+06    -64.3068E+06    -665.482E+03    -22.1286E+03         971.232     7.92256E+06         20.2551
           69513        No Value        No Value        No Value        No Value     65.4033E+06    -64.1132E+06    -576.428E+03    -32.4334E+03     684.422E+03     8.25316E+06     138.434E+03
           69514        No Value        No Value        No Value        No Value     83.5713E+06    -83.7703E+06    -1.02010E+06    -4.78413E+03     1.40457E+03     4.14382E+06         3.32935
           69515     748.222E-06    -735.296E-06     59.5965E-06     125.000E-06     99.9704E+06    -100.536E+06    -1.15368E+06     9.13191E+03     212.027E+03     222.354E+03         848.625
           69516        No Value        No Value        No Value        No Value     83.6375E+06    -83.7749E+06    -952.849E+03    -4.61227E+03     579.414E+03     4.29353E+06     2.56704E+03
           69517     737.771E-06    -725.296E-06     51.2632E-06     125.000E-06     95.7906E+06    -96.3563E+06    -1.15771E+06     14.3059E+03     1.82339E+03     205.490E+03     822.510E-03
           69518     739.116E-06    -725.296E-06     67.9298E-06     125.000E-06     95.7468E+06    -96.2119E+06    -950.723E+03     9.17867E+03     284.808E+03     216.286E+03     3.58331E+03
           69533        No Value        No Value        No Value        No Value     68.4739E+06    -67.0872E+06    -677.589E+03    -17.3797E+03     927.219E+03     8.78606E+06    -12.5288E+03
           69535        No Value        No Value        No Value        No Value     65.4043E+06    -63.6018E+06    -337.429E+03    -52.1042E+03     1.07426E+06     9.19535E+06     133.725E+03
           69536     749.734E-06    -735.296E-06     76.2632E-06     125.000E-06     100.208E+06    -100.681E+06    -970.658E+03     4.86964E+03     557.457E+03     243.063E+03    -1.46085E+03
           69537        No Value        No Value        No Value        No Value     84.0309E+06    -83.9743E+06    -719.399E+03    -4.51206E+03     978.813E+03     4.72188E+06    -19.0511E+03
           69538     740.834E-06    -725.296E-06     84.5965E-06     125.000E-06     95.5844E+06    -95.8255E+06    -485.380E+03    -7.00150E+03     460.645E+03     224.584E+03    -6.82536E+03
           69553        No Value        No Value        No Value        No Value     69.5642E+06    -67.5798E+06    -315.108E+03    -49.3649E+03     807.105E+03      9.9119E+06    -33.3958E+03
           69555        No Value        No Value        No Value        No Value     65.5344E+06    -62.8566E+06    -15.0110E+03     40.7881E+03     183.195E+03     10.6783E+06     13.4942E+03
           69556     751.612E-06    -735.296E-06     92.9298E-06     125.000E-06     101.157E+06    -101.381E+06    -468.153E+03     6.16139E+03     503.136E+03     319.154E+03    -1.32400E+03
           69557        No Value        No Value        No Value        No Value     85.5306E+06    -85.0131E+06    -8.93758E+03    -31.7795E+03     251.477E+03     5.52314E+06    -12.3558E+03
           69558     742.922E-06    -725.296E-06     101.263E-06     125.000E-06     95.1370E+06    -95.0965E+06     15.7176E+03     58.5688E+03     1.29444E+03     456.865E+03     3.29849E+03
           69559        No Value        No Value        No Value        No Value     44.9158E+06    -36.9291E+06    -25.7769E+06     1.25014E+06     13.9759E+06     9.27619E+06    -1.80098E+06
           69560        No Value        No Value        No Value        No Value     63.7993E+06    -60.5881E+06    -12.3491E+06    -875.703E+03     16.9984E+06     5.49305E+06    -1.42633E+06
           69561     657.535E-06    -645.296E-06     17.9298E-06     125.000E-06     70.5264E+06    -53.2982E+06    -41.2936E+06    -151.509E+03     29.5558E+06    -739.797E+03     270.473E+03
           69562     657.292E-06    -645.296E-06     1.26317E-06     125.000E-06     80.9846E+06    -68.1196E+06    -26.9938E+06     2.38193E+06     28.0351E+06     11.9126E+06    -2.04269E+06
           69563        No Value        No Value        No Value        No Value     58.3589E+06    -30.9334E+06     17.8445E+06     9.29277E+06    -11.2951E+06     14.3472E+06     1.71973E+06
           69564        No Value        No Value        No Value        No Value     74.3833E+06    -52.5438E+06    -18.9528E+06     282.199E+03     15.9125E+06     29.1994E+06    -4.86434E+06
           69565     667.180E-06    -655.296E-06     9.59650E-06     125.000E-06     62.7465E+06    -58.9362E+06     2.19686E+06     549.234E+03     7.92672E+06     1.00522E+06     575.987E+03
           69566        No Value        No Value        No Value        No Value     50.8151E+06    -34.2764E+06     1.78890E+06     6.81386E+06    -316.781E+03     18.1679E+06    -940.101E+03
           69567        No Value        No Value        No Value        No Value     45.9703E+06    -44.8359E+06    -5.86263E+06    -99.1184E+03     3.10680E+06     9.86041E+06    -2.14703E+06
           69568        No Value        No Value        No Value        No Value     60.4828E+06    -60.1875E+06    -1.00222E+06    -56.5820E+03     2.04633E+06     4.92548E+06    -472.257E+03
           69569     677.174E-06    -665.296E-06     17.9298E-06     125.000E-06     69.4717E+06    -70.8906E+06    -8.84881E+06    -36.6053E+03     10.7687E+06     269.411E+03    -17.5813E+03
           69570     676.938E-06    -665.296E-06     1.26317E-06     125.000E-06     56.5115E+06    -54.8190E+06     4.38921E+06    -1.51529E+06    -597.754E+03     29.8135E+03     730.235E+03
           69571        No Value        No Value        No Value        No Value     49.6676E+06    -47.6286E+06    -455.560E+03     336.080E+03    -774.932E+03     7.82862E+06    -518.127E+03
           69572        No Value        No Value        No Value        No Value     49.0165E+06    -27.5295E+06     3.31941E+06     5.93972E+06    -1.54967E+06     21.2548E+06     501.078E+03
           69573     686.834E-06    -675.296E-06     9.59650E-06     125.000E-06     68.2049E+06    -67.3598E+06     932.691E+03     619.503E+03     896.768E+03     624.979E+03     113.504E+03
           69574        No Value        No Value        No Value        No Value     45.9319E+06    -40.2326E+06     466.180E+03     486.493E+03    -884.256E+03     12.1886E+06    -860.341E+03
           69575        No Value        No Value        No Value        No Value     51.7472E+06    -49.4140E+06    -845.341E+03     11.3469E+03    -789.018E+03     9.50176E+06    -982.386E+03
           69576        No Value        No Value        No Value        No Value     66.8868E+06    -66.7202E+06    -574.341E+03    -109.179E+03    -285.966E+03     4.71490E+06    -386.294E+03
           69577     696.833E-06    -685.296E-06     17.9298E-06     125.000E-06     76.2627E+06    -76.9042E+06    -1.38792E+06    -27.8326E+03     1.57093E+06     110.522E+03     32.4725E+03
           69578     696.604E-06    -685.296E-06     1.26317E-06     125.000E-06     68.3764E+06    -68.8658E+06    -1.17138E+06     108.511E+03     750.572E+03     966.042E+03    -90.1161E+03
           69579        No Value        No Value        No Value        No Value     63.4429E+06    -61.7381E+06     869.027E+03     608.305E+03    -440.650E+03     6.34935E+06     61.3973E+03
           69580        No Value        No Value        No Value        No Value     47.8227E+06    -42.3352E+06    -1.11450E+06     279.351E+03     39.2306E+03     13.2706E+06    -215.041E+03
           69581     706.508E-06    -695.296E-06     9.59650E-06     125.000E-06     78.2504E+06    -78.3898E+06    -183.533E+03    -102.042E+03     233.493E+03     308.687E+03     43.3553E+03
           69582        No Value        No Value        No Value        No Value     53.7242E+06     -50.224E+06    -12.3721E+03     350.427E+03    -755.962E+03     10.7155E+06    -412.658E+03
           69583        No Value        No Value        No Value        No Value     58.4038E+06    -56.3428E+06    -277.236E+03    -117.405E+03    -993.287E+03     9.21607E+06    -543.105E+03
           69584        No Value        No Value        No Value        No Value     75.7779E+06    -75.3871E+06    -79.5050E+03    -28.4669E+03    -552.810E+03     4.69716E+06    -145.876E+03
           69585     716.511E-06    -705.296E-06     17.9298E-06     125.000E-06     85.6220E+06    -85.8355E+06    -428.001E+03    -4.17692E+03     181.629E+03     211.196E+03     25.4838E+03
           69586     716.288E-06    -705.296E-06     1.26317E-06     125.000E-06     82.3866E+06    -82.2311E+06     363.535E+03    -60.0511E+03    -81.5131E+03     393.661E+03     65.2154E+03
           69587        No Value        No Value        No Value        No Value     73.9198E+06    -73.3267E+06    -130.096E+03     27.8143E+03    -8.83573E+03     5.62098E+06    -24.5216E+03
           69588        No Value        No Value        No Value        No Value     56.8924E+06    -52.8826E+06     254.160E+03     474.899E+03    -310.519E+03     11.5639E+06    -21.9086E+03
           69589     726.199E-06    -715.296E-06     9.59650E-06     125.000E-06     89.7087E+06    -89.6892E+06     12.6660E+03     22.1958E+03    -51.9170E+03     342.793E+03        -252.540
           69590        No Value        No Value        No Value        No Value     61.4522E+06    -58.9682E+06    -26.9856E+03     30.8058E+03    -575.610E+03     9.96348E+06    -159.978E+03
           69591        No Value        No Value        No Value        No Value     65.4049E+06    -63.6019E+06    -337.524E+03    -52.1015E+03    -1.07336E+06     9.19676E+06    -133.675E+03
           69592        No Value        No Value        No Value        No Value     84.0309E+06    -83.9743E+06    -719.559E+03    -4.50444E+03    -977.147E+03     4.72259E+06     19.0805E+03
           69593     736.207E-06    -725.296E-06     17.9298E-06     125.000E-06     95.5844E+06    -95.8256E+06    -485.515E+03    -6.99836E+03    -458.263E+03     224.605E+03     6.82165E+03
           69594     735.989E-06    -725.296E-06     1.26317E-06     125.000E-06     95.1376E+06    -95.0972E+06     15.6724E+03     58.5635E+03    -1.24495E+03     457.157E+03    -3.30140E+03
           69595        No Value        No Value        No Value        No Value     85.5317E+06    -85.0140E+06    -8.98018E+03    -31.8624E+03    -251.767E+03     5.52488E+06     12.3861E+03
           69596        No Value        No Value        No Value        No Value     65.5363E+06    -62.8572E+06    -15.0476E+03     40.7077E+03    -183.370E+03     10.6813E+06    -13.4714E+03
           69597     745.907E-06    -735.296E-06     9.59650E-06     125.000E-06     101.157E+06    -101.382E+06    -468.286E+03     6.15117E+03    -501.981E+03     319.318E+03     1.32204E+03
           69598        No Value        No Value        No Value        No Value     69.5655E+06    -67.5802E+06    -315.208E+03    -49.4310E+03    -806.854E+03     9.91415E+06     33.4596E+03
           69724        No Value        No Value        No Value        No Value     36.1567E+06    -33.9269E+06    -30.9846E+06     260.546E+03     7.19203E+06     4.92034E+06    -884.210E+03
           69725        No Value        No Value        No Value        No Value     47.4898E+06    -50.4470E+06    -25.3468E+06     85.5459E+03     10.2145E+06     2.67151E+06    -535.046E+03
           69726     658.201E-06    -645.296E-06     34.5965E-06     125.000E-06     54.4163E+06    -48.6001E+06    -48.2413E+06     391.768E+03     13.8658E+06     61.1725E+03    -7.76844E+03
           69727     667.628E-06    -655.296E-06     26.2632E-06     125.000E-06     65.7873E+06    -65.6681E+06    -22.3220E+06     187.184E+03     17.6328E+06     442.212E+03    -63.3881E+03
           69728        No Value        No Value        No Value        No Value     44.0362E+06    -43.8724E+06    -14.1994E+06     3.37006E+03     8.36586E+06     8.25036E+06    -1.27535E+06
           69729        No Value        No Value        No Value        No Value     43.2757E+06    -46.2852E+06    -12.3237E+06    -211.266E+03     3.86975E+06     6.14506E+06    -1.00842E+06
           69730        No Value        No Value        No Value        No Value     59.6652E+06    -62.1502E+06    -6.59281E+06     210.636E+03     2.11937E+06     3.34632E+06    -490.946E+03
           69731     677.820E-06    -665.296E-06     34.5965E-06     125.000E-06     63.0628E+06    -69.1249E+06    -19.6182E+06    -493.746E+03     8.43089E+06     33.3957E+03         237.281
           69732     687.269E-06    -675.296E-06     26.2632E-06     125.000E-06     71.6914E+06    -74.4260E+06    -6.20599E+06    -389.091E+03     4.27287E+06     46.6932E+03    -5.08968E+03
           69733        No Value        No Value        No Value        No Value     48.5697E+06    -48.3048E+06    -3.83816E+06    -207.958E+03     939.701E+03     8.16190E+06    -1.23015E+06
           69734        No Value        No Value        No Value        No Value     52.6171E+06    -52.6181E+06    -3.08943E+06    -22.7443E+03     348.394E+03     7.11441E+06    -795.288E+03
           69735        No Value        No Value        No Value        No Value     68.9022E+06    -69.5255E+06    -1.84538E+06    -96.1507E+03     66.4432E+03     3.87289E+06    -320.395E+03
           69736     697.461E-06    -685.296E-06     34.5965E-06     125.000E-06     76.7033E+06    -79.0957E+06    -5.36707E+06     95.1488E+03     2.22067E+06     114.074E+03    -2.25991E+03
           69737     706.930E-06    -695.296E-06     26.2632E-06     125.000E-06     81.4863E+06    -82.1432E+06    -1.38031E+06     38.8743E+03     440.359E+03     173.076E+03     4.35349E+03
           69738        No Value        No Value        No Value        No Value     55.6397E+06    -54.0582E+06    -724.790E+03    -92.9334E+03    -751.586E+03     8.44925E+06    -669.105E+03
           69739        No Value        No Value        No Value        No Value     59.4980E+06    -58.3669E+06    -847.375E+03    -90.2534E+03    -516.265E+03     7.87402E+06    -444.652E+03
           69740        No Value        No Value        No Value        No Value     76.6028E+06    -76.5319E+06    -543.827E+03    -9.62026E+03    -423.693E+03     4.17587E+06    -139.509E+03
           69741     717.122E-06    -705.296E-06     34.5965E-06     125.000E-06     86.8560E+06    -87.6658E+06    -1.63073E+06    -15.2898E+03     273.355E+03     172.438E+03    -11.0701E+03
           69742     726.610E-06    -715.296E-06     26.2632E-06     125.000E-06     91.1002E+06    -91.3453E+06    -491.473E+03    -3.26002E+03    -179.352E+03     216.315E+03    -7.09120E+03
           69743        No Value        No Value        No Value        No Value     62.3133E+06    -60.6309E+06    -271.549E+03    -74.4309E+03    -791.619E+03     8.67226E+06    -290.254E+03
           69744        No Value        No Value        No Value        No Value     65.4035E+06    -64.1132E+06    -576.471E+03    -32.4323E+03    -682.727E+03     8.25375E+06    -138.389E+03
           69745        No Value        No Value        No Value        No Value     83.6375E+06    -83.7749E+06    -952.897E+03    -4.61559E+03    -576.870E+03     4.29383E+06    -2.55424E+03
           69746     736.801E-06    -725.296E-06     34.5965E-06     125.000E-06     95.7468E+06    -96.2119E+06    -950.779E+03     9.18117E+03    -281.452E+03     216.296E+03    -3.58216E+03
           69747     746.307E-06    -735.296E-06     26.2632E-06     125.000E-06     100.208E+06    -100.681E+06    -970.755E+03     4.87211E+03    -554.592E+03     243.092E+03     1.46331E+03
           69748        No Value        No Value        No Value        No Value     68.4742E+06    -67.0872E+06    -677.671E+03    -17.3774E+03    -925.895E+03     8.78707E+06     12.5667E+03
           69824     668.491E-06    -655.296E-06     42.9298E-06     125.000E-06     52.6932E+06    -59.4234E+06    -32.3081E+06    -16.9358E+03     6.36142E+06     28.3385E+03     19.1033E+03
           69825        No Value        No Value        No Value        No Value     36.6572E+06    -40.4260E+06    -20.4859E+06     157.717E+03     3.25696E+06     4.99717E+06    -531.451E+03
           69826     688.108E-06    -675.296E-06     42.9298E-06     125.000E-06      70.018E+06    -74.5720E+06    -10.5166E+06     40.5604E+03     1.91449E+06     55.9544E+03    -5.01709E+03
           69827        No Value        No Value        No Value        No Value     48.2414E+06    -49.8427E+06    -6.26445E+06    -23.8034E+03     566.142E+03     6.19753E+06    -475.253E+03
           69828     707.746E-06    -695.296E-06     42.9298E-06     125.000E-06     82.4675E+06    -83.7900E+06    -2.74440E+06     25.4983E+03     262.876E+03     142.143E+03    -7.79751E+03
           69829        No Value        No Value        No Value        No Value     56.6429E+06    -55.9222E+06    -1.37712E+06    -74.1034E+03    -246.746E+03     7.30200E+06    -313.541E+03
           69830     727.403E-06    -715.296E-06     42.9298E-06     125.000E-06     91.5967E+06    -92.0582E+06    -938.618E+03     6.66017E+03    -73.7557E+03     198.378E+03    -2.92594E+03
           69831        No Value        No Value        No Value        No Value     62.7149E+06    -61.4187E+06    -432.954E+03    -49.3960E+03    -321.325E+03     7.95776E+06    -139.066E+03
           69832     747.079E-06    -735.296E-06     42.9298E-06     125.000E-06     99.9704E+06    -100.536E+06    -1.15370E+06     9.13213E+03    -208.518E+03     222.362E+03        -848.131
           69833        No Value        No Value        No Value        No Value     68.1266E+06    -67.0159E+06    -788.376E+03    -8.23283E+03    -358.186E+03     8.21553E+06    -2.59767E+03
           69859     945.811E-06    -935.296E-06     64.4598E-06     125.000E-06     133.128E+06    -125.922E+06     13.3407E+06    -78.6775E+03     2.41376E+06    -53.1931E+03     334.254E+03
           69860        No Value        No Value        No Value        No Value     109.825E+06    -105.208E+06     8.69357E+06    -658.644E+03     4.46339E+06    -204.125E+03    -1.17878E+06
           69861        No Value        No Value        No Value        No Value     84.8426E+06    -81.6163E+06     5.93657E+06    -162.865E+03     2.34956E+06    -1.39437E+06    -1.54826E+06
           69862        No Value        No Value        No Value        No Value     108.007E+06    -101.848E+06     10.9409E+06     563.962E+03    -3.13427E+03    -1.46193E+06         778.016
           69863        No Value        No Value        No Value        No Value     109.962E+06    -106.981E+06     5.76575E+06    -35.0969E+03    -1.36555E+03    -154.648E+03        -511.381
           69864        No Value        No Value        No Value        No Value     85.5021E+06    -84.1279E+06     2.37786E+06     107.587E+03     2.18182E+06     385.948E+03    -1.10552E+06
           69865        No Value        No Value        No Value        No Value     108.879E+06    -106.374E+06     4.04027E+06     341.637E+03     4.15898E+06     204.380E+03    -1.22588E+06
           69866     926.054E-06    -915.376E-06     63.5410E-06     125.000E-06     133.461E+06    -129.514E+06     7.43737E+06     73.8843E+03     1.80444E+06    -186.719E+03    -95.2692E+03
           69867        No Value        No Value        No Value        No Value     85.3518E+06    -82.4466E+06     5.18934E+06     353.832E+03        -595.656    -1.31453E+06        -135.828
           69868     935.107E-06    -925.296E-06     51.2632E-06     125.000E-06     133.047E+06    -127.056E+06     11.3207E+06    -71.9384E+03    -1.06202E+03    -174.370E+03         489.730
           69869        No Value        No Value        No Value        No Value     84.6756E+06    -82.4741E+06     3.46392E+06    -97.2480E+03     4.33226E+06    -27.6658E+03    -2.67336E+06
           69870     936.928E-06    -925.376E-06     76.7376E-06     125.000E-06     132.907E+06    -127.497E+06     9.65497E+06     355.366E+03     3.72572E+06    -349.942E+03     193.705E+03
           69911     947.975E-06    -935.296E-06     90.8530E-06     125.000E-06     132.239E+06    -125.309E+06     11.8919E+06     55.4333E+03     6.85952E+06    -308.363E+03    -1.36359E+06
           69912        No Value        No Value        No Value        No Value     103.336E+06    -95.8799E+06     7.28065E+06     4.86015E+06     2.11687E+06    -2.13762E+06    -195.139E+03
           69913        No Value        No Value        No Value        No Value     82.8604E+06    -79.4664E+06     3.54624E+06     1.00249E+06     6.85804E+06     720.070E+03    -3.50224E+06
           69914        No Value        No Value        No Value        No Value     87.0684E+06    -85.8741E+06    -1.51793E+06     115.914E+03     8.66363E+06     4.31195E+06    -3.73231E+06
           69915        No Value        No Value        No Value        No Value     108.552E+06    -107.846E+06    -5.14602E+06    -331.637E+03     14.2121E+06     3.29016E+06    -3.27066E+06
           69916     928.220E-06    -915.536E-06     88.0967E-06     125.000E-06     134.037E+06    -132.068E+06     3.02633E+06    -539.760E+03      7.7678E+06     523.465E+03     254.066E+03
           69917        No Value        No Value        No Value        No Value     81.8209E+06    -79.4110E+06    -3.75547E+06     2.62152E+06     10.5923E+06     3.16955E+06    -4.14249E+06
           69918     939.437E-06    -925.456E-06     102.212E-06     125.000E-06     129.338E+06    -124.531E+06     5.59488E+06     1.88419E+06     6.56859E+06    -1.53913E+06     1.02548E+06
           69944     950.868E-06    -935.296E-06     117.246E-06     125.000E-06     146.420E+06    -143.096E+06    -9.57672E+06    -3.81520E+06     30.0942E+06     5.40135E+06     1.22875E+06
           69945        No Value        No Value        No Value        No Value     175.458E+06    -143.692E+06    -43.7918E+06    -19.5309E+06     65.5759E+06     33.0091E+06    -23.2648E+06
           69946        No Value        No Value        No Value        No Value     107.068E+06    -92.3070E+06    -26.0359E+06    -7.56541E+06     29.7778E+06     22.4984E+06    -21.0386E+06
           69947        No Value        No Value        No Value        No Value      100.44E+06    -91.9054E+06    -6.44291E+06    -1.46286E+06     22.4574E+06     15.7828E+06    -4.91679E+06
           69948        No Value        No Value        No Value        No Value     131.692E+06    -122.064E+06    -5.15658E+06    -215.616E+03     28.8584E+06     13.6860E+06    -986.110E+03
           69949     931.030E-06    -915.697E-06     112.652E-06     125.000E-06     137.463E+06    -133.995E+06    -6.48427E+06     1.47398E+06     22.7253E+06    -297.446E+03    -418.092E+03
           69950        No Value        No Value        No Value        No Value     139.106E+06    -109.656E+06    -27.0140E+06    -13.0949E+06     42.9679E+06     37.3934E+06    -21.9337E+06
           69951     942.637E-06    -925.556E-06     127.616E-06     125.000E-06     168.890E+06    -158.056E+06    -22.7569E+06    -6.67180E+06     50.1903E+06     8.42197E+06    -2.07859E+06
           69977        No Value        No Value        No Value        No Value     110.413E+06    -109.310E+06     2.17667E+06    -21.1042E+03     2.27672E+03     812.627E+03        -461.154
           69978        No Value        No Value        No Value        No Value     86.7103E+06    -86.3802E+06     125.859E+03     143.718E+03     2.28693E+06     2.27634E+06    -925.927E+03
           69979        No Value        No Value        No Value        No Value     110.469E+06    -109.493E+06     1.23677E+06     158.154E+03     4.15572E+06     1.38025E+06    -905.643E+03
           69980     906.286E-06    -895.431E-06     62.7169E-06     125.000E-06     134.052E+06    -132.341E+06     3.24711E+06     19.1045E+03     2.08045E+06    -24.4629E+03        -829.926
           69981        No Value        No Value        No Value        No Value     86.1176E+06    -85.0607E+06     1.93521E+06     135.415E+03        -367.688     646.008E+03        -873.906
           69982     915.321E-06    -905.296E-06     51.2632E-06     125.000E-06     133.937E+06    -130.768E+06     6.15389E+06    -30.1127E+03        -611.789    -117.568E+03        -276.773
           69983        No Value        No Value        No Value        No Value     86.5767E+06    -85.8199E+06     466.387E+03        -927.684     4.67722E+06     2.04817E+06    -2.00669E+06
           69984     917.169E-06    -905.511E-06     74.9947E-06     125.000E-06     133.979E+06    -131.604E+06     4.33195E+06    -63.5739E+03     4.07898E+06    -66.4305E+03    -39.1214E+03
           70010        No Value        No Value        No Value        No Value     88.5130E+06    -87.6949E+06    -2.05335E+06     78.4653E+03     8.48543E+06     5.02510E+06    -2.65441E+06
           70011        No Value        No Value        No Value        No Value     113.283E+06    -111.771E+06    -1.80111E+06     284.705E+03     12.3520E+06     3.55559E+06    -1.46317E+06
           70012     908.426E-06    -895.701E-06     85.6242E-06     125.000E-06     134.226E+06    -133.414E+06     217.532E+03    -150.438E+03     8.32848E+06    -2.98864E+03    -140.070E+03
           70013        No Value        No Value        No Value        No Value     89.3054E+06    -87.0297E+06    -4.99874E+06     232.852E+03     13.8400E+06      6.5739E+06    -4.92368E+06
           70014     919.626E-06    -905.727E-06     98.7262E-06     125.000E-06     133.357E+06    -132.578E+06    -1.58377E+06    -285.872E+03     12.2508E+06    -147.119E+03    -178.883E+03
           70030        No Value        No Value        No Value        No Value     97.5828E+06    -91.5567E+06    -4.21159E+06    -156.309E+03     17.6581E+06     13.2777E+06    -4.39587E+06
           70031        No Value        No Value        No Value        No Value     122.007E+06    -115.053E+06    -6.95821E+06    -829.408E+03     26.6394E+06     10.6375E+06    -3.24205E+06
           70032     911.137E-06    -895.972E-06     108.532E-06     125.000E-06     138.659E+06    -135.504E+06    -3.23599E+06     100.750E+03     20.6308E+06      770.37E+03     126.030E+03
           70033        No Value        No Value        No Value        No Value     110.199E+06    -96.3584E+06    -3.96367E+06    -1.95668E+06     24.2624E+06     23.1019E+06    -4.10505E+06
           70034     922.696E-06    -905.960E-06     122.386E-06     125.000E-06     146.758E+06    -138.286E+06    -6.47161E+06     1.33099E+06     31.9519E+06     1.87538E+06    -315.485E+03
           70050        No Value        No Value        No Value        No Value     110.463E+06    -110.356E+06     108.270E+03     33.8995E+03     1.40112E+03     1.62814E+06        -401.667
           70051        No Value        No Value        No Value        No Value     87.5344E+06    -87.6904E+06    -1.06467E+06     78.0250E+03     2.15018E+06     3.77183E+06    -686.380E+03
           70052        No Value        No Value        No Value        No Value     110.908E+06    -110.866E+06    -577.066E+03     28.0899E+03     4.26972E+06     2.11414E+06    -710.047E+03
           70053     886.512E-06    -875.463E-06     61.9880E-06     125.000E-06     134.020E+06    -133.590E+06     753.936E+03     6.23331E+03     2.09667E+06     20.2670E+03    -13.5466E+03
           70054        No Value        No Value        No Value        No Value     86.8266E+06    -86.7417E+06    -144.201E+03     100.303E+03     1.10825E+03     2.48285E+06        -815.531
           70055     895.545E-06    -885.296E-06     51.2632E-06     125.000E-06     133.936E+06    -132.666E+06     2.48133E+06     22.6322E+03     1.69218E+03    -41.4467E+03         29.1895
           70056        No Value        No Value        No Value        No Value     87.5083E+06    -87.2209E+06    -774.877E+03     154.479E+03     4.43741E+06     3.49977E+06    -1.59908E+06
           70057     897.387E-06    -885.599E-06     73.4417E-06     125.000E-06     134.149E+06    -133.181E+06     1.52002E+06     22.8680E+03     4.11782E+06    -27.0135E+03    -26.2228E+03
           70083        No Value        No Value        No Value        No Value     89.4436E+06    -88.7259E+06    -1.93746E+06     154.796E+03     7.37975E+06     5.99810E+06    -1.88317E+06
           70084        No Value        No Value        No Value        No Value     113.159E+06    -112.483E+06    -2.27104E+06     84.5813E+03     10.7393E+06     3.74917E+06    -1.22349E+06
           70085     888.600E-06    -875.799E-06     83.4378E-06     125.000E-06     134.821E+06    -134.554E+06    -749.130E+03    -30.0223E+03     7.66269E+06     124.114E+03    -21.1059E+03
           70086        No Value        No Value        No Value        No Value     91.2013E+06    -89.1816E+06    -2.86839E+06     291.982E+03     11.5504E+06     7.33254E+06    -2.76644E+06
           70087     899.772E-06    -885.902E-06     95.6203E-06     125.000E-06     135.701E+06    -134.892E+06    -1.29146E+06     93.6652E+03     11.1846E+06     -77.395E+03     120.050E+03
           70103        No Value        No Value        No Value        No Value     95.7684E+06    -91.3958E+06    -3.50122E+06    -248.465E+03     15.2057E+06     11.9969E+06    -2.84138E+06
           70104        No Value        No Value        No Value        No Value     120.656E+06    -115.094E+06    -4.43905E+06    -205.390E+03     22.8644E+06     9.12855E+06    -1.69077E+06
           70105     891.200E-06    -876.135E-06     104.887E-06     125.000E-06     138.223E+06    -136.193E+06    -3.52778E+06     93.5128E+03     18.3558E+06     572.056E+03    -119.250E+03
           70106        No Value        No Value        No Value        No Value     103.085E+06    -93.7509E+06    -5.59367E+06    -1.03803E+06     21.4162E+06     18.1897E+06    -4.61608E+06
           70107     902.703E-06    -886.221E-06     117.727E-06     125.000E-06     142.394E+06    -136.891E+06    -6.67459E+06    -402.540E+03     28.6014E+06     1.76190E+06    -335.380E+03
           70123        No Value        No Value        No Value        No Value     109.772E+06    -110.201E+06    -1.04376E+06     35.0936E+03     1.56271E+03     2.29051E+06        -354.940
           70124        No Value        No Value        No Value        No Value     87.4304E+06    -87.7529E+06    -1.70155E+06     64.3471E+03     1.88866E+06     4.92121E+06    -514.414E+03
           70125        No Value        No Value        No Value        No Value     110.396E+06    -110.754E+06    -1.36892E+06     46.5875E+03     3.78764E+06     2.66966E+06    -519.230E+03
           70126     866.735E-06    -855.476E-06     61.3551E-06     125.000E-06     132.886E+06    -133.224E+06    -755.137E+03    -6.35015E+03     1.91865E+06     68.2769E+03    -14.3557E+03
           70127        No Value        No Value        No Value        No Value     87.1480E+06    -87.4594E+06    -1.22581E+06     65.1942E+03     1.21547E+03     3.89662E+06        -711.906
           70128     875.779E-06    -865.296E-06     51.2632E-06     125.000E-06     133.276E+06    -133.152E+06     272.085E+03    -25.3826E+03     1.66770E+03     27.2603E+03        -32.8125
           70129        No Value        No Value        No Value        No Value     87.9160E+06    -87.9666E+06    -1.59031E+06     71.1214E+03     4.07261E+06     4.76104E+06    -1.20042E+06
           70130     877.588E-06    -865.644E-06     72.0800E-06     125.000E-06     133.663E+06    -133.656E+06    -351.917E+03     7.33552E+03     3.98278E+06     26.7477E+03    -28.0769E+03
           70156        No Value        No Value        No Value        No Value     89.3230E+06    -88.8367E+06    -2.10923E+06     92.6373E+03     6.36879E+06     6.66438E+06    -1.44012E+06
           70157        No Value        No Value        No Value        No Value     112.735E+06    -112.413E+06    -2.23981E+06     73.1737E+03     9.32888E+06     3.96533E+06    -908.547E+03
           70158     868.753E-06    -855.837E-06     81.5391E-06     125.000E-06     134.111E+06    -134.357E+06    -1.52978E+06    -20.4004E+03     6.83361E+06     136.573E+03    -39.5738E+03
           70159        No Value        No Value        No Value        No Value     91.1071E+06    -89.5926E+06    -2.62695E+06     170.292E+03     9.91399E+06     7.68904E+06    -2.14150E+06
           70160     879.885E-06    -865.992E-06     92.8968E-06     125.000E-06     135.499E+06    -135.273E+06    -1.86421E+06    -2.50535E+03     10.1553E+06     17.0592E+03    -7.00902E+03
           70176        No Value        No Value        No Value        No Value     94.6831E+06    -91.1721E+06    -2.78061E+06    -88.4670E+03     12.8827E+06     11.4450E+06    -2.29269E+06
           70177        No Value        No Value        No Value        No Value     119.241E+06    -115.169E+06    -3.55582E+06    -212.895E+03     19.7076E+06     8.25946E+06    -1.50036E+06
           70178     871.234E-06    -856.199E-06     101.723E-06     125.000E-06     137.730E+06    -136.361E+06    -2.94096E+06     19.8577E+03     15.9555E+06     584.489E+03    -62.6875E+03
           70179        No Value        No Value        No Value        No Value     100.260E+06    -92.9700E+06    -3.40198E+06    -483.943E+03     17.9207E+06     16.0158E+06    -2.98490E+06
           70180     882.672E-06    -866.355E-06     113.642E-06     125.000E-06     141.734E+06    -137.298E+06    -4.56692E+06     70.3319E+03     24.6832E+06     1.40028E+06    -227.057E+03
           70196        No Value        No Value        No Value        No Value     108.005E+06    -108.751E+06    -1.75865E+06     22.3110E+03     1.54170E+03     2.81882E+06        -247.162
           70197        No Value        No Value        No Value        No Value     86.4430E+06    -86.7575E+06    -2.00875E+06     53.9757E+03     1.57719E+06     5.85994E+06    -404.277E+03
           70198        No Value        No Value        No Value        No Value     108.721E+06    -109.361E+06    -1.88999E+06     29.8677E+03     3.18761E+06     3.12372E+06    -414.791E+03
           70199     846.958E-06    -835.472E-06     60.8187E-06     125.000E-06     130.597E+06    -131.366E+06    -1.61374E+06         521.761     1.62314E+06     109.569E+03    -10.8154E+03
           70200        No Value        No Value        No Value        No Value     86.5737E+06    -86.9712E+06    -1.76823E+06     61.9244E+03     1.28519E+03     5.03927E+06        -578.930
           70201     856.024E-06    -845.296E-06     51.2632E-06     125.000E-06     131.468E+06    -131.978E+06    -1.02430E+06    -1.52731E+03     1.83152E+03     68.4040E+03        -21.9648
           70202        No Value        No Value        No Value        No Value     87.3931E+06    -87.5172E+06    -1.92167E+06     69.5476E+03     3.47423E+06     5.71095E+06    -913.081E+03
           70203     857.777E-06    -845.653E-06     70.9107E-06     125.000E-06     132.077E+06    -132.598E+06    -1.33328E+06     4.01842E+03     3.49793E+06     80.3466E+03    -21.6578E+03
           70229        No Value        No Value        No Value        No Value     88.2877E+06    -87.8868E+06    -2.12449E+06     70.5612E+03     5.29722E+06     7.26683E+06    -1.13733E+06
           70230        No Value        No Value        No Value        No Value     111.185E+06    -111.176E+06    -2.19903E+06     52.3942E+03     7.78439E+06     4.17304E+06    -743.755E+03
           70231     848.892E-06    -835.825E-06     79.9298E-06     125.000E-06     132.078E+06    -132.673E+06    -1.94849E+06    -12.6971E+03     5.73629E+06     166.129E+03    -31.1980E+03
           70232        No Value        No Value        No Value        No Value     90.3728E+06    -89.1622E+06    -2.37081E+06     115.313E+03     8.34582E+06     8.06779E+06    -1.64981E+06
           70233     859.976E-06    -846.010E-06     90.5582E-06     125.000E-06     134.268E+06    -134.420E+06    -2.07018E+06     14.0075E+03     8.76619E+06     68.9994E+03    -2.09562E+03
           70249        No Value        No Value        No Value        No Value     93.2081E+06    -90.3745E+06    -2.20629E+06    -71.1500E+03     10.6545E+06     11.1237E+06    -1.78335E+06
           70250        No Value        No Value        No Value        No Value     117.471E+06    -114.504E+06    -2.41743E+06    -125.535E+03     16.2688E+06     7.66569E+06    -1.11672E+06
           70251     851.251E-06    -836.178E-06     99.0409E-06     125.000E-06     136.034E+06    -135.270E+06    -2.45231E+06     20.1163E+03     13.2830E+06     551.896E+03    -70.5126E+03
           70252        No Value        No Value        No Value        No Value     98.1450E+06    -92.4518E+06    -2.59040E+06    -312.898E+03     15.0848E+06     14.6858E+06    -2.43938E+06
           70253     862.619E-06    -846.378E-06     110.133E-06     125.000E-06     140.324E+06    -137.244E+06    -3.40604E+06    -33.3984E+03     20.9034E+06     1.24913E+06    -177.469E+03
           70269        No Value        No Value        No Value        No Value     105.106E+06    -105.987E+06    -2.12097E+06     22.6759E+03     1.44602E+03     3.25721E+06        -163.956
           70270        No Value        No Value        No Value        No Value     84.4794E+06    -84.6878E+06    -2.13916E+06     46.5034E+03     1.25512E+06     6.63941E+06    -325.480E+03
           70271        No Value        No Value        No Value        No Value     105.875E+06    -106.648E+06    -2.13897E+06     27.8003E+03     2.51632E+06     3.50656E+06    -334.424E+03
           70272     827.185E-06    -815.454E-06     60.3792E-06     125.000E-06     126.940E+06    -127.965E+06    -2.11427E+06        -720.155     1.27035E+06     145.374E+03    -10.4804E+03
           70273        No Value        No Value        No Value        No Value     85.0684E+06    -85.4270E+06    -2.06531E+06     49.0835E+03     1.19495E+03     5.96472E+06        -394.859
           70274     836.281E-06    -825.296E-06     51.2632E-06     125.000E-06     128.415E+06    -129.313E+06    -1.81138E+06    -4.33508E+03     1.78742E+03     110.307E+03        -14.8643
           70275        No Value        No Value        No Value        No Value     85.9006E+06    -86.0042E+06    -2.09230E+06     53.9658E+03     2.84522E+06     6.50947E+06    -728.632E+03
           70276     837.962E-06    -825.630E-06     69.9348E-06     125.000E-06     129.148E+06    -130.008E+06    -1.93461E+06     3.46564E+03     2.85975E+06     120.137E+03    -21.3145E+03
           70302        No Value        No Value        No Value        No Value     86.3003E+06    -85.8940E+06    -2.05561E+06     56.2023E+03     4.20184E+06     7.78636E+06    -914.671E+03
           70303        No Value        No Value        No Value        No Value     108.436E+06    -108.647E+06    -2.07756E+06     42.2065E+03     6.12569E+06     4.36982E+06    -600.305E+03
           70304     829.027E-06    -815.770E-06     78.6113E-06     125.000E-06     128.599E+06    -129.430E+06    -2.15033E+06    -7.99995E+03     4.48574E+06     192.600E+03    -29.2798E+03
           70305        No Value        No Value        No Value        No Value     88.7752E+06    -87.7484E+06    -2.13520E+06     86.5541E+03     6.78263E+06     8.42309E+06    -1.32880E+06
           70306     840.056E-06    -825.965E-06     88.6064E-06     125.000E-06     131.606E+06    -132.076E+06    -2.13964E+06     7.84814E+03     7.13024E+06     120.118E+03    -16.9107E+03
           70322        No Value        No Value        No Value        No Value     90.9139E+06    -88.5647E+06    -1.69801E+06    -51.5383E+03     8.38293E+06     10.9107E+06    -1.39446E+06
           70323        No Value        No Value        No Value        No Value     114.495E+06    -112.471E+06    -1.57110E+06    -106.654E+03     12.7616E+06     7.19192E+06    -852.943E+03
           70324     831.264E-06    -816.086E-06     96.8434E-06     125.000E-06     132.772E+06    -132.506E+06    -1.96777E+06     13.5822E+03     10.4066E+06     527.462E+03    -51.1518E+03
           70325        No Value        No Value        No Value        No Value     95.7630E+06    -91.2339E+06    -1.70448E+06    -222.820E+03     12.1409E+06     13.7574E+06    -1.84282E+06
           70326     842.558E-06    -826.309E-06     107.205E-06     125.000E-06     137.768E+06    -135.739E+06    -2.27918E+06    -5.09572E+03     16.8916E+06     1.10246E+06    -129.725E+03
           70342        No Value        No Value        No Value        No Value     101.031E+06    -101.931E+06    -2.24872E+06     20.1052E+03     1.40637E+03     3.62366E+06        -100.521
           70343        No Value        No Value        No Value        No Value     81.5442E+06    -81.5536E+06    -2.10628E+06     41.9609E+03     934.706E+03     7.29102E+06    -258.072E+03
           70344        No Value        No Value        No Value        No Value     101.795E+06    -102.598E+06    -2.20155E+06     24.7719E+03     1.82425E+06     3.82893E+06    -266.478E+03
           70345     807.421E-06    -795.424E-06     60.0370E-06     125.000E-06     121.858E+06    -122.996E+06    -2.33062E+06         581.139     897.594E+03     177.996E+03    -8.57988E+03
           70346        No Value        No Value        No Value        No Value     82.6144E+06    -82.8154E+06    -2.14564E+06     45.0460E+03      1.0935E+03     6.73331E+06        -255.145
           70347     816.550E-06    -805.296E-06     51.2632E-06     125.000E-06     124.011E+06    -125.107E+06    -2.22067E+06    -1.93769E+03     1.75783E+03     146.500E+03        -8.95605
           70348        No Value        No Value        No Value        No Value     83.4304E+06    -83.4102E+06    -2.10174E+06     48.7501E+03     2.20115E+06     7.17706E+06    -582.746E+03
           70349     818.150E-06    -805.582E-06     69.1530E-06     125.000E-06     124.796E+06    -125.843E+06    -2.23721E+06     2.61220E+03     2.14047E+06     157.889E+03    -18.3597E+03
           70375        No Value        No Value        No Value        No Value     83.2804E+06    -82.7811E+06    -1.90961E+06     48.0714E+03     3.10569E+06     8.22202E+06    -715.982E+03
           70376        No Value        No Value        No Value        No Value     104.319E+06    -104.663E+06    -1.91614E+06     36.4057E+03     4.42075E+06     4.53315E+06    -470.887E+03
           70377     809.168E-06    -795.681E-06     77.5846E-06     125.000E-06     123.547E+06    -124.509E+06    -2.19373E+06    -5.89339E+03     3.17491E+06     217.493E+03    -23.9945E+03
           70378        No Value        No Value        No Value        No Value     86.1904E+06    -85.2434E+06    -1.89109E+06     70.0074E+03     5.20584E+06     8.74029E+06    -1.05458E+06
           70379     820.138E-06    -805.869E-06     87.0429E-06     125.000E-06     127.373E+06    -128.068E+06    -2.10122E+06     9.37064E+03     5.34374E+06     162.684E+03    -17.1431E+03
           70395        No Value        No Value        No Value        No Value     87.5591E+06    -85.5536E+06    -1.28392E+06    -53.0701E+03     6.12245E+06     10.7128E+06    -1.03757E+06
           70396        No Value        No Value        No Value        No Value     110.096E+06    -108.787E+06    -896.999E+03    -96.9829E+03     9.22674E+06     6.77084E+06    -602.267E+03
           70397     811.291E-06    -795.938E-06     95.1323E-06     125.000E-06     127.741E+06    -127.848E+06    -1.55692E+06     13.8294E+03     7.45597E+06     497.353E+03    -35.2309E+03
           70398        No Value        No Value        No Value        No Value     92.5333E+06    -88.9139E+06    -1.05650E+06    -191.813E+03     9.21360E+06     12.9934E+06    -1.36837E+06
           70399     822.508E-06    -806.163E-06     104.860E-06     125.000E-06     133.492E+06    -132.337E+06    -1.40906E+06    -8.49471E+03     12.7759E+06     970.429E+03    -87.6669E+03
           70415        No Value        No Value        No Value        No Value     95.8842E+06    -96.6756E+06    -2.11516E+06     16.8694E+03     1.40560E+03     3.91371E+06        -54.3049
           70416        No Value        No Value        No Value        No Value     77.6984E+06    -77.4157E+06    -1.89403E+06     35.4980E+03     650.524E+03     7.80406E+06    -188.460E+03
           70417        No Value        No Value        No Value        No Value     96.5284E+06    -97.2500E+06    -2.06429E+06     21.5129E+03     1.20637E+06     4.08427E+06    -194.689E+03
           70418     787.670E-06    -775.386E-06     59.7923E-06     125.000E-06     115.422E+06    -116.533E+06    -2.26685E+06     2.09196E+03     562.422E+03     205.390E+03    -6.27018E+03
           70419        No Value        No Value        No Value        No Value     79.2502E+06    -79.1976E+06    -2.03858E+06     39.9076E+03     1.03639E+03     7.35735E+06        -149.771
           70420     796.832E-06    -785.296E-06     51.2632E-06     125.000E-06     118.268E+06    -119.412E+06    -2.32389E+06        -982.352     1.77448E+03     178.979E+03        -5.48730
           70421        No Value        No Value        No Value        No Value     79.9900E+06    -79.7562E+06    -1.96966E+06     42.1813E+03     1.59341E+06     7.72248E+06    -446.616E+03
           70422     798.348E-06    -785.514E-06     68.5662E-06     125.000E-06     119.001E+06    -120.106E+06    -2.29722E+06     2.25489E+03     1.43660E+06     190.145E+03    -14.7563E+03
           70448        No Value        No Value        No Value        No Value     79.2146E+06    -78.5357E+06    -1.68231E+06     36.0057E+03     2.09730E+06      8.5538E+06    -516.319E+03
           70449        No Value        No Value        No Value        No Value     98.7782E+06    -99.1545E+06    -1.71161E+06     32.5175E+03     2.81446E+06     4.65131E+06    -337.244E+03
           70450     789.326E-06    -775.567E-06     76.8507E-06     125.000E-06     116.928E+06    -117.908E+06    -2.08316E+06    -4.17694E+03     1.95527E+06     238.304E+03    -16.7620E+03
           70451        No Value        No Value        No Value        No Value     82.5114E+06    -81.5442E+06    -1.63812E+06     57.2431E+03     3.68123E+06     8.98562E+06    -795.638E+03
           70452     800.235E-06    -785.733E-06     85.8692E-06     125.000E-06     121.461E+06    -122.279E+06    -1.98609E+06     10.5086E+03     3.55672E+06     199.084E+03    -13.2852E+03
           70468        No Value        No Value        No Value        No Value     83.0082E+06    -81.2067E+06    -962.994E+03    -64.7144E+03     3.96362E+06     10.4848E+06    -704.276E+03
           70469        No Value        No Value        No Value        No Value     104.086E+06    -103.293E+06    -461.787E+03    -108.648E+03     5.81173E+06     6.36206E+06    -381.509E+03
           70470     791.346E-06    -775.748E-06     93.9091E-06     125.000E-06     120.836E+06    -121.179E+06    -1.23940E+06     11.5780E+03     4.61003E+06     460.563E+03    -15.2340E+03
           70471        No Value        No Value        No Value        No Value     88.1951E+06    -85.2432E+06    -572.997E+03    -189.194E+03     6.33929E+06     12.2952E+06    -932.427E+03
           70472     802.486E-06    -785.958E-06     103.099E-06     125.000E-06     127.329E+06    -126.811E+06    -769.155E+03    -8.21381E+03     8.70599E+06     838.781E+03    -51.5798E+03
           70488        No Value        No Value        No Value        No Value     89.9442E+06    -90.4769E+06    -1.66375E+06     12.6759E+03     1.41513E+03     4.10223E+06        -20.0015
           70489        No Value        No Value        No Value        No Value     73.1388E+06    -72.4642E+06    -1.44156E+06     18.5630E+03     452.433E+03     8.13616E+06    -104.572E+03
           70490        No Value        No Value        No Value        No Value     90.3439E+06    -90.8343E+06    -1.63764E+06     12.1693E+03     782.274E+03       4.251E+06    -108.078E+03
           70491     767.935E-06    -755.342E-06     59.6455E-06     125.000E-06     107.966E+06    -108.875E+06    -1.85098E+06     2.97311E+03     332.888E+03     222.926E+03    -2.93059E+03
           70492        No Value        No Value        No Value        No Value     75.1256E+06    -74.7180E+06    -1.70205E+06     30.5472E+03     1.01024E+03     7.81060E+06        -71.8887
           70493     777.129E-06    -765.296E-06     51.2632E-06     125.000E-06     111.406E+06    -112.434E+06    -2.08898E+06         738.533     1.81196E+03     204.300E+03        -2.48340
           70494        No Value        No Value        No Value        No Value     75.6877E+06    -75.1376E+06    -1.64783E+06     30.1353E+03     1.10709E+06     8.12015E+06    -294.259E+03
           70495     778.563E-06    -765.433E-06     68.1747E-06     125.000E-06     111.946E+06    -112.950E+06    -2.06298E+06     5.04148E+03     875.591E+03     214.558E+03    -8.99438E+03
           70521        No Value        No Value        No Value        No Value     74.1811E+06    -73.2091E+06    -1.29986E+06     18.1010E+03     1.33386E+06     8.75225E+06    -285.612E+03
           70522        No Value        No Value        No Value        No Value     91.8009E+06    -92.0976E+06    -1.43787E+06     17.5280E+03     1.56972E+06     4.71319E+06    -189.438E+03
           70523     769.510E-06    -755.435E-06     76.4101E-06     125.000E-06     108.944E+06    -109.779E+06    -1.72170E+06         85.9083     1.05241E+06     248.002E+03    -7.91428E+03
           70524        No Value        No Value        No Value        No Value     77.6854E+06    -76.5968E+06    -1.36885E+06     35.8042E+03     2.35973E+06     9.13942E+06    -522.879E+03
           70525     780.360E-06    -765.570E-06     85.0861E-06     125.000E-06     113.869E+06    -114.695E+06    -1.79016E+06     7.78169E+03     2.01368E+06     226.380E+03    -6.31862E+03
           70541        No Value        No Value        No Value        No Value     77.1038E+06    -75.3824E+06    -712.617E+03    -122.458E+03     2.06697E+06     10.1943E+06    -373.393E+03
           70542        No Value        No Value        No Value        No Value     96.3114E+06    -95.8141E+06    -192.347E+03    -134.636E+03     2.65306E+06     5.93376E+06    -176.600E+03
           70543     771.447E-06    -755.529E-06     93.1747E-06     125.000E-06     112.031E+06    -112.445E+06    -980.392E+03     20.1701E+03     2.12433E+06     410.728E+03     1.56650E+03
           70544        No Value        No Value        No Value        No Value     82.5195E+06    -80.0317E+06    -262.506E+03    -231.910E+03     3.63113E+06     11.5972E+06    -537.927E+03
           70545     782.512E-06    -765.710E-06     101.924E-06     125.000E-06     119.141E+06    -119.006E+06    -352.032E+03     13.6730E+03     4.86124E+06     703.662E+03    -22.6075E+03
           70561        No Value        No Value        No Value        No Value     70.4690E+06    -69.6501E+06    -1.15528E+06     6.53333E+03         990.594     8.02944E+06        -16.0188
           70562     757.442E-06    -745.296E-06     51.2632E-06     125.000E-06     103.819E+06    -104.589E+06    -1.56012E+06     1.35255E+03     1.83120E+03     215.941E+03    -291.626E-03
           70563        No Value        No Value        No Value        No Value     70.7532E+06    -69.8016E+06    -1.11124E+06     6.04100E+03     816.113E+03     8.31911E+06    -103.126E+03
           70564     758.802E-06    -745.342E-06     67.9788E-06     125.000E-06     104.053E+06    -104.789E+06    -1.50561E+06     7.45224E+03     535.451E+03     225.898E+03    -2.57063E+03
           70575        No Value        No Value        No Value        No Value     71.8433E+06    -70.4514E+06    -911.662E+03     11.4824E+03     1.49436E+06     9.19783E+06    -208.926E+03
           70576     760.528E-06    -745.389E-06     84.6944E-06     125.000E-06     104.972E+06    -105.570E+06    -1.26275E+06     22.1958E+03     1.04702E+06     238.500E+03     4.40304E+03
           70582        No Value        No Value        No Value        No Value     74.9950E+06    -72.7195E+06    -163.531E+03    -230.876E+03     1.28470E+06     10.9499E+06    -192.593E+03
           70583     762.607E-06    -745.437E-06     101.337E-06     125.000E-06     108.397E+06    -108.496E+06    -224.065E+03    -49.7672E+03     1.57175E+06     516.138E+03    -2.30594E+03
           70589        No Value        No Value        No Value        No Value     71.8436E+06    -70.4512E+06    -911.719E+03     11.4773E+03    -1.49344E+06     9.19920E+06     208.976E+03
           70590        No Value        No Value        No Value        No Value     91.8008E+06    -92.0974E+06    -1.43777E+06     17.5214E+03    -1.56804E+06     4.71387E+06     189.459E+03
           70591     756.008E-06    -745.389E-06     17.8318E-06     125.000E-06     104.972E+06    -105.570E+06    -1.26277E+06     22.1935E+03    -1.04458E+06     238.516E+03    -4.39822E+03
           70592     755.845E-06    -745.437E-06     1.18962E-06     125.000E-06     108.398E+06    -108.496E+06    -224.094E+03    -49.7600E+03    -1.57215E+06     516.518E+03     2.31482E+03
           70593        No Value        No Value        No Value        No Value     96.3112E+06    -95.8135E+06    -192.375E+03    -134.576E+03    -2.65365E+06     5.93549E+06     176.693E+03
           70594        No Value        No Value        No Value        No Value     74.9964E+06    -72.7196E+06    -163.564E+03    -230.878E+03    -1.28522E+06     10.9530E+06     192.716E+03
           70595     765.856E-06    -755.529E-06     9.35151E-06     125.000E-06     112.031E+06    -112.445E+06    -980.313E+03     20.1728E+03    -2.12334E+06     410.895E+03    -1.55294E+03
           70596        No Value        No Value        No Value        No Value     77.1043E+06    -75.3820E+06    -712.612E+03    -122.409E+03    -2.06682E+06     10.1965E+06     373.496E+03
           70597        No Value        No Value        No Value        No Value     77.6853E+06    -76.5963E+06    -1.36876E+06     35.7921E+03    -2.35881E+06     9.14069E+06     522.885E+03
           70598        No Value        No Value        No Value        No Value     98.7777E+06    -99.1538E+06    -1.71137E+06     32.5068E+03    -2.81284E+06     4.65192E+06     337.241E+03
           70599     775.903E-06    -765.570E-06     17.4401E-06     125.000E-06     113.869E+06    -114.695E+06    -1.78989E+06     7.78086E+03    -2.01131E+06     226.395E+03     6.32711E+03
           70600     775.846E-06    -765.710E-06     601.889E-09     125.000E-06     119.140E+06    -119.005E+06    -352.030E+03     13.6725E+03    -4.86167E+06     703.984E+03     22.6357E+03
           70601        No Value        No Value        No Value        No Value     104.085E+06    -103.292E+06    -461.804E+03    -108.603E+03    -5.81209E+06     6.36363E+06     381.645E+03
           70602        No Value        No Value        No Value        No Value     82.5200E+06    -80.0307E+06    -262.528E+03    -231.796E+03    -3.63164E+06     11.6001E+06     538.135E+03
           70603     785.801E-06    -775.748E-06     8.61705E-06     125.000E-06     120.835E+06    -121.178E+06    -1.23921E+06     11.5637E+03    -4.60900E+06     460.707E+03     15.2580E+03
           70604        No Value        No Value        No Value        No Value     83.0079E+06    -81.2057E+06    -962.948E+03    -64.6723E+03    -3.96339E+06     10.4868E+06     704.380E+03
           70605        No Value        No Value        No Value        No Value     82.5108E+06    -81.5432E+06    -1.63797E+06     57.2233E+03    -3.68023E+06     8.98671E+06     795.588E+03
           70606        No Value        No Value        No Value        No Value     104.317E+06    -104.662E+06    -1.91579E+06     36.3916E+03    -4.41906E+06     4.53364E+06     470.850E+03
           70607     795.789E-06    -785.733E-06     16.6569E-06     125.000E-06     121.460E+06    -122.278E+06    -1.98565E+06     10.5038E+03    -3.55441E+06     199.091E+03     13.3014E+03
           70608     795.836E-06    -785.958E-06    -572.906E-09     125.000E-06     127.327E+06    -126.809E+06    -769.153E+03    -8.20861E+03    -8.70618E+06     839.087E+03     51.5981E+03
           70609        No Value        No Value        No Value        No Value     110.095E+06    -108.785E+06    -897.008E+03    -96.8847E+03    -9.22685E+06     6.77219E+06     602.405E+03
           70610        No Value        No Value        No Value        No Value     88.1946E+06    -85.2415E+06    -573.046E+03    -189.059E+03    -6.33959E+06     12.2978E+06     932.659E+03
           70611     805.728E-06    -795.938E-06     7.39373E-06     125.000E-06     127.740E+06    -127.847E+06    -1.55665E+06     13.8266E+03    -7.45479E+06     497.468E+03     35.2560E+03
           70612        No Value        No Value        No Value        No Value     87.5581E+06    -85.5520E+06    -1.28385E+06    -52.9945E+03    -6.12203E+06     10.7145E+06     1.03765E+06
           70613        No Value        No Value        No Value        No Value     86.1892E+06    -85.2420E+06    -1.89087E+06     69.9718E+03    -5.20466E+06     8.74113E+06     1.05442E+06
           70614        No Value        No Value        No Value        No Value     108.435E+06    -108.645E+06    -2.07710E+06     42.1772E+03    -6.12382E+06     4.37015E+06     600.207E+03
           70615     815.653E-06    -805.869E-06     15.4832E-06     125.000E-06     127.372E+06    -128.067E+06    -2.10062E+06     9.36543E+03    -5.34136E+06     162.683E+03     17.1563E+03
           70616     815.800E-06    -806.163E-06    -2.33377E-06     125.000E-06     133.489E+06    -132.335E+06    -1.40901E+06    -8.50750E+03    -12.7757E+06     970.673E+03     87.7258E+03
           70617        No Value        No Value        No Value        No Value     114.493E+06    -112.468E+06    -1.57104E+06    -106.526E+03    -12.7614E+06     7.19296E+06     853.106E+03
           70618        No Value        No Value        No Value        No Value     92.5319E+06    -88.9114E+06    -1.05650E+06    -191.616E+03    -9.21362E+06     12.9956E+06     1.36865E+06
           70619     825.624E-06    -816.086E-06     5.68258E-06     125.000E-06     132.770E+06    -132.503E+06    -1.96737E+06     13.5838E+03    -10.4052E+06     527.558E+03     51.1817E+03
           70620        No Value        No Value        No Value        No Value     90.9121E+06    -88.5624E+06    -1.69787E+06    -51.4537E+03    -8.38222E+06     10.9120E+06     1.39450E+06
           70621        No Value        No Value        No Value        No Value     88.7731E+06    -87.7464E+06    -2.13484E+06     86.4999E+03    -6.78113E+06     8.42353E+06     1.32849E+06
           70622        No Value        No Value        No Value        No Value     111.183E+06    -111.173E+06    -2.19828E+06     52.3879E+03    -7.78216E+06     4.17315E+06     743.563E+03
           70623     835.486E-06    -825.965E-06     13.9197E-06     125.000E-06     131.604E+06    -132.074E+06    -2.13877E+06     7.84517E+03    -7.12764E+06     120.120E+03     16.9364E+03
           70624     835.723E-06    -826.309E-06    -4.67924E-06     125.000E-06     137.764E+06    -135.736E+06    -2.27909E+06    -5.09741E+03    -16.8910E+06     1.10262E+06     129.740E+03
           70625        No Value        No Value        No Value        No Value     117.467E+06    -114.500E+06    -2.41741E+06    -125.458E+03    -16.2681E+06     7.66638E+06     1.11680E+06
           70626        No Value        No Value        No Value        No Value     95.7605E+06    -91.2305E+06    -1.70445E+06    -222.574E+03    -12.1406E+06     13.7589E+06     1.84299E+06
           70627     845.476E-06    -836.178E-06     3.48503E-06     125.000E-06     136.031E+06    -135.267E+06    -2.45176E+06     20.0840E+03    -13.2812E+06     551.943E+03     70.5721E+03
           70628        No Value        No Value        No Value        No Value     93.2052E+06    -90.3714E+06    -2.20604E+06    -71.0522E+03    -10.6534E+06     11.1244E+06     1.78320E+06
           70629        No Value        No Value        No Value        No Value     90.3697E+06    -89.1593E+06    -2.37014E+06     115.222E+03    -8.34368E+06     8.06783E+06     1.64921E+06
           70630        No Value        No Value        No Value        No Value     112.731E+06    -112.409E+06    -2.23861E+06     73.0385E+03    -9.32575E+06     3.96518E+06     908.144E+03
           70631     855.278E-06    -846.010E-06     11.9678E-06     125.000E-06     134.265E+06    -134.417E+06    -2.06892E+06     13.9924E+03    -8.76297E+06     68.9138E+03     2.10070E+03
           70632     855.593E-06    -846.378E-06    -7.60733E-06     125.000E-06     140.319E+06    -137.238E+06    -3.40556E+06    -33.3762E+03    -20.9022E+06     1.24936E+06     177.536E+03
           70633        No Value        No Value        No Value        No Value     119.235E+06    -115.163E+06    -3.55515E+06    -212.654E+03    -19.7062E+06     8.25964E+06     1.50061E+06
           70634        No Value        No Value        No Value        No Value     98.1407E+06    -92.4470E+06    -2.59013E+06    -312.658E+03    -15.0839E+06     14.6865E+06     2.43965E+06
           70635     865.275E-06    -856.198E-06     802.939E-09     125.000E-06     137.725E+06    -136.356E+06    -2.93974E+06     19.9238E+03    -15.9529E+06     584.549E+03     62.6226E+03
           70636        No Value        No Value        No Value        No Value     94.6784E+06    -91.1677E+06    -2.78004E+06    -88.4532E+03    -12.8808E+06     11.4450E+06     2.29249E+06
           70637        No Value        No Value        No Value        No Value     91.1030E+06    -89.5889E+06    -2.62477E+06     170.142E+03    -9.91061E+06     7.68825E+06     2.14051E+06
           70638        No Value        No Value        No Value        No Value     113.155E+06    -112.478E+06    -2.26661E+06     84.9627E+03    -10.7340E+06     3.74857E+06     1.22289E+06
           70639     875.020E-06    -865.992E-06     9.62923E-06     125.000E-06     135.495E+06    -135.269E+06    -1.86067E+06    -2.53088E+03    -10.1507E+06     17.2625E+03     7.07640E+03
           70640     875.396E-06    -866.355E-06    -11.1156E-06     125.000E-06     141.723E+06    -137.289E+06    -4.56693E+06     70.3504E+03    -24.6804E+06     1.39995E+06     227.019E+03
           70641        No Value        No Value        No Value        No Value     120.644E+06    -115.084E+06    -4.44076E+06    -205.982E+03    -22.8618E+06     9.12844E+06     1.69002E+06
           70642        No Value        No Value        No Value        No Value     100.252E+06    -92.9624E+06    -3.40186E+06    -483.417E+03    -17.9187E+06     16.0158E+06     2.98417E+06
           70643     885.010E-06    -876.135E-06    -2.36145E-06     125.000E-06     138.213E+06    -136.185E+06    -3.52686E+06     92.8809E+03    -18.3508E+06     571.986E+03     119.861E+03
           70644        No Value        No Value        No Value        No Value     95.7605E+06    -91.3886E+06    -3.49975E+06    -248.218E+03    -15.2025E+06     11.9960E+06     2.83995E+06
           70645        No Value        No Value        No Value        No Value     91.1975E+06    -89.1787E+06    -2.86466E+06     291.513E+03    -11.5444E+06     7.33239E+06     2.76410E+06
           70646        No Value        No Value        No Value        No Value     113.278E+06    -111.768E+06    -1.79594E+06     283.303E+03    -12.3415E+06     3.55530E+06     1.46136E+06
           70647     894.704E-06    -885.902E-06     6.90586E-06     125.000E-06     135.697E+06    -134.888E+06    -1.28670E+06     93.6704E+03    -11.1767E+06    -78.1812E+03    -120.271E+03
           70648     895.122E-06    -886.221E-06    -15.2011E-06     125.000E-06     142.377E+06    -136.873E+06    -6.66878E+06    -402.050E+03    -28.5956E+06     1.76318E+06     335.471E+03
           70649        No Value        No Value        No Value        No Value     121.987E+06    -115.032E+06    -6.94853E+06    -829.594E+03    -26.6322E+06     10.6355E+06     3.24417E+06
           70650        No Value        No Value        No Value        No Value     103.067E+06    -93.7349E+06    -5.59048E+06    -1.03838E+06    -21.4108E+06     18.1865E+06     4.61778E+06
           70651     904.669E-06    -895.972E-06    -6.00549E-06     125.000E-06     138.647E+06    -135.491E+06    -3.22556E+06     101.604E+03    -20.6213E+06     771.497E+03    -128.023E+03
           70652        No Value        No Value        No Value        No Value     97.5655E+06    -91.5444E+06    -4.20761E+06    -158.224E+03    -17.6478E+06     13.2746E+06     4.39625E+06
           70653        No Value        No Value        No Value        No Value     89.3179E+06    -87.0371E+06    -4.97297E+06     232.568E+03    -13.8309E+06     6.57277E+06     4.92069E+06
           70654        No Value        No Value        No Value        No Value     108.598E+06    -107.873E+06    -5.09256E+06    -324.552E+03    -14.1965E+06     3.28683E+06     3.26884E+06
           70655     914.320E-06    -905.727E-06     3.80000E-06     125.000E-06     133.384E+06    -132.592E+06    -1.55056E+06    -286.431E+03    -12.2425E+06    -143.922E+03     179.986E+03
           70656     914.759E-06    -905.960E-06    -19.8603E-06     125.000E-06     146.689E+06    -138.232E+06    -6.47787E+06     1.33112E+06    -31.9257E+06     1.86987E+06     315.384E+03
           70657        No Value        No Value        No Value        No Value     131.587E+06    -121.978E+06    -5.17617E+06    -216.148E+03    -28.8327E+06     13.6845E+06     975.909E+03
           70658        No Value        No Value        No Value        No Value     110.150E+06    -96.3160E+06    -3.96191E+06    -1.94620E+06    -24.2449E+06     23.0929E+06     4.08936E+06
           70659     924.245E-06    -915.697E-06    -10.1261E-06     125.000E-06     137.426E+06    -133.980E+06    -6.48688E+06     1.45872E+06    -22.6986E+06    -296.853E+03     432.460E+03
           70660        No Value        No Value        No Value        No Value     100.419E+06    -91.8860E+06    -6.41734E+06    -1.45654E+06    -22.4411E+06     15.7741E+06     4.89807E+06
           70661        No Value        No Value        No Value        No Value     81.8776E+06    -79.4807E+06    -3.77758E+06     2.60176E+06    -10.6129E+06     3.19858E+06     4.13115E+06
           70662        No Value        No Value        No Value        No Value     103.415E+06    -96.0136E+06     7.17918E+06     4.82378E+06    -2.18852E+06    -2.09787E+06     180.811E+03
           70663     933.860E-06    -925.456E-06     314.258E-09     125.000E-06     129.423E+06    -124.622E+06     5.56959E+06     1.88104E+06    -6.59325E+06    -1.53752E+06    -1.03193E+06
           70664     934.296E-06    -925.556E-06    -25.0895E-06     125.000E-06     168.685E+06    -157.860E+06    -22.6369E+06    -6.65761E+06    -50.0946E+06     8.40700E+06     2.06604E+06
           70665        No Value        No Value        No Value        No Value     175.172E+06    -143.472E+06    -43.5966E+06    -19.4684E+06    -65.4235E+06     32.9257E+06     23.2737E+06
           70666        No Value        No Value        No Value        No Value     138.953E+06    -109.537E+06    -26.9661E+06    -13.0602E+06    -42.8988E+06     37.3346E+06     21.9525E+06
           70667     943.726E-06    -935.296E-06    -14.7198E-06     125.000E-06     146.402E+06    -143.014E+06    -9.40170E+06    -3.74900E+06    -30.0134E+06     5.37188E+06    -1.29260E+06
           70668        No Value        No Value        No Value        No Value     107.048E+06    -92.3084E+06    -26.0153E+06    -7.53993E+06    -29.7331E+06     22.4816E+06     21.0548E+06
           70919        No Value        No Value        No Value        No Value     70.7532E+06    -69.8015E+06    -1.11126E+06     6.03864E+03    -814.378E+03     8.31968E+06     103.114E+03
           70920        No Value        No Value        No Value        No Value     90.3437E+06    -90.8342E+06    -1.63759E+06     12.1676E+03    -779.700E+03     4.25128E+06     108.054E+03
           70921     756.540E-06    -745.342E-06     34.5475E-06     125.000E-06     104.053E+06    -104.789E+06    -1.50559E+06     7.45386E+03    -532.064E+03     225.907E+03     2.57095E+03
           70922     766.153E-06    -755.435E-06     26.1162E-06     125.000E-06     108.944E+06    -109.779E+06    -1.72158E+06         86.2788    -1.04955E+06     248.031E+03     7.91622E+03
           70923        No Value        No Value        No Value        No Value     74.1812E+06    -73.2089E+06    -1.29984E+06     18.0926E+03    -1.33251E+06     8.75321E+06     285.607E+03
           70924        No Value        No Value        No Value        No Value     75.6876E+06    -75.1374E+06    -1.64778E+06     30.1263E+03    -1.10533E+06     8.12067E+06     294.153E+03
           70925        No Value        No Value        No Value        No Value     96.5282E+06    -97.2497E+06    -2.06412E+06     21.5081E+03    -1.20384E+06     4.08451E+06     194.606E+03
           70926     776.332E-06    -765.433E-06     34.3516E-06     125.000E-06     111.946E+06    -112.950E+06    -2.06281E+06     5.03844E+03    -872.246E+03     214.566E+03     8.99311E+03
           70927     785.995E-06    -775.567E-06     25.6755E-06     125.000E-06     116.928E+06    -117.908E+06    -2.08286E+06    -4.17475E+03    -1.95249E+06     238.326E+03     16.7659E+03
           70928        No Value        No Value        No Value        No Value     79.2143E+06    -78.5352E+06    -1.68221E+06     35.9942E+03    -2.09592E+06     8.55466E+06     516.232E+03
           70929        No Value        No Value        No Value        No Value     79.9897E+06    -79.7557E+06    -1.96955E+06     42.1690E+03    -1.59159E+06     7.72290E+06     446.379E+03
           70930        No Value        No Value        No Value        No Value     101.794E+06    -102.598E+06    -2.20129E+06     24.7632E+03    -1.82170E+06     3.82912E+06     266.320E+03
           70931     796.123E-06    -785.514E-06     33.9601E-06     125.000E-06     119.001E+06    -120.105E+06    -2.29689E+06     2.25475E+03    -1.43334E+06     190.150E+03     14.7528E+03
           70932     805.826E-06    -795.681E-06     24.9415E-06     125.000E-06     123.546E+06    -124.508E+06    -2.19329E+06    -5.88877E+03    -3.17217E+06     217.510E+03     23.9975E+03
           70933        No Value        No Value        No Value        No Value     83.2797E+06    -82.7803E+06    -1.90946E+06     48.0515E+03    -3.10421E+06     8.22271E+06     715.783E+03
           70934        No Value        No Value        No Value        No Value     83.4298E+06    -83.4096E+06    -2.10157E+06     48.7292E+03    -2.19920E+06     7.17736E+06     582.322E+03
           70935        No Value        No Value        No Value        No Value     105.874E+06    -106.647E+06    -2.13861E+06     27.7879E+03    -2.51367E+06     3.50668E+06     334.151E+03
           70936     815.905E-06    -805.582E-06     33.3732E-06     125.000E-06     124.796E+06    -125.842E+06    -2.23675E+06     2.61065E+03    -2.13723E+06     157.890E+03     18.3463E+03
           70937     825.638E-06    -815.770E-06     23.9148E-06     125.000E-06     128.598E+06    -129.428E+06    -2.14971E+06    -7.99069E+03    -4.48291E+06     192.605E+03     29.2759E+03
           70938        No Value        No Value        No Value        No Value     86.2990E+06    -85.8928E+06    -2.05539E+06     56.1712E+03    -4.20016E+06     7.78682E+06     914.299E+03
           70939        No Value        No Value        No Value        No Value     85.8996E+06    -86.0033E+06    -2.09201E+06     53.9454E+03    -2.84303E+06     6.50960E+06     727.953E+03
           70940        No Value        No Value        No Value        No Value     108.720E+06    -109.360E+06    -1.88939E+06     29.8590E+03    -3.18469E+06     3.12372E+06     414.372E+03
           70941     835.675E-06    -825.630E-06     32.5914E-06     125.000E-06     129.147E+06    -130.007E+06    -1.93394E+06     3.46452E+03    -2.85638E+06     120.125E+03     21.3031E+03
           70942     845.422E-06    -835.825E-06     22.5963E-06     125.000E-06     132.076E+06    -132.672E+06    -1.94761E+06    -12.6971E+03    -5.73319E+06     166.133E+03     31.1938E+03
           70943        No Value        No Value        No Value        No Value     88.2858E+06    -87.8851E+06    -2.12413E+06     70.5115E+03    -5.29518E+06     7.26697E+06     1.13672E+06
           70944        No Value        No Value        No Value        No Value     87.3919E+06    -87.5160E+06    -1.92111E+06     69.4897E+03    -3.47172E+06     5.71084E+06     912.064E+03
           70945        No Value        No Value        No Value        No Value     110.394E+06    -110.753E+06    -1.36780E+06     46.5464E+03    -3.78441E+06     2.66957E+06     518.579E+03
           70946     855.426E-06    -845.653E-06     31.6155E-06     125.000E-06     132.076E+06    -132.596E+06    -1.33213E+06     4.00803E+03    -3.49433E+06     80.3585E+03     21.6057E+03
           70947     865.172E-06    -855.837E-06     20.9870E-06     125.000E-06     134.109E+06    -134.354E+06    -1.52803E+06    -20.3572E+03    -6.82991E+06     136.525E+03     39.5472E+03
           70948        No Value        No Value        No Value        No Value     89.3206E+06    -88.8344E+06    -2.10825E+06     92.5676E+03    -6.36616E+06     6.66419E+06     1.43913E+06
           70949        No Value        No Value        No Value        No Value     87.9152E+06    -87.9655E+06    -1.58873E+06     71.1434E+03    -4.06986E+06     4.76090E+06     1.19899E+06
           70950        No Value        No Value        No Value        No Value     110.907E+06    -110.865E+06    -574.524E+03     27.9829E+03    -4.26663E+06     2.11397E+06     709.302E+03
           70951     875.152E-06    -865.644E-06     30.4462E-06     125.000E-06     133.662E+06    -133.655E+06    -349.782E+03     7.39260E+03    -3.97903E+06     26.6327E+03     28.1051E+03
           70952     884.880E-06    -875.799E-06     19.0884E-06     125.000E-06     134.820E+06    -134.552E+06    -745.299E+03    -30.0431E+03    -7.65805E+06     124.162E+03     20.9661E+03
           70953        No Value        No Value        No Value        No Value     89.4416E+06    -88.7239E+06    -1.93503E+06     154.666E+03    -7.37630E+06     5.99746E+06     1.88165E+06
           70954        No Value        No Value        No Value        No Value     87.5095E+06    -87.2210E+06    -771.831E+03     154.338E+03    -4.43608E+06     3.49937E+06     1.59747E+06
           70955        No Value        No Value        No Value        No Value     110.474E+06    -109.494E+06     1.24284E+06     158.823E+03    -4.15728E+06     1.38048E+06     904.465E+03
           70956     894.850E-06    -885.599E-06     29.0845E-06     125.000E-06     134.152E+06    -133.181E+06     1.52519E+06     22.7892E+03    -4.11567E+06    -26.7523E+03     25.8135E+03
           70957     904.539E-06    -895.701E-06     16.9020E-06     125.000E-06     134.229E+06    -133.412E+06     228.372E+03    -149.147E+03    -8.32428E+06     -3.4085E+03     140.492E+03
           70958        No Value        No Value        No Value        No Value     88.5155E+06    -87.6944E+06    -2.04510E+06     78.9193E+03    -8.48211E+06     5.02550E+06     2.65216E+06
           70959        No Value        No Value        No Value        No Value     86.5732E+06    -85.8175E+06     464.001E+03    -1.32674E+03    -4.67843E+06     2.04945E+06     2.00661E+06
           70960        No Value        No Value        No Value        No Value     108.869E+06    -106.374E+06     4.02486E+06     335.003E+03    -4.16604E+06     205.725E+03     1.22826E+06
           70961     914.513E-06    -905.511E-06     27.5316E-06     125.000E-06     133.971E+06    -131.599E+06     4.32580E+06    -63.8059E+03    -4.08016E+06    -67.1906E+03     40.2651E+03
           70962     924.143E-06    -915.536E-06     14.4296E-06     125.000E-06     134.049E+06    -132.069E+06     3.04431E+06    -533.588E+03    -7.76707E+06     524.113E+03    -258.668E+03
           70963        No Value        No Value        No Value        No Value     87.0756E+06    -85.8729E+06    -1.50608E+06     120.557E+03    -8.66494E+06     4.31247E+06     3.73191E+06
           70964        No Value        No Value        No Value        No Value     84.6749E+06    -82.4607E+06     3.48047E+06    -88.6736E+03    -4.32910E+06    -35.5980E+03     2.67529E+06
           70965        No Value        No Value        No Value        No Value     109.824E+06    -105.165E+06     8.75387E+06    -632.131E+03    -4.43349E+06    -217.372E+03     1.17518E+06
           70966     934.136E-06    -925.376E-06     25.7887E-06     125.000E-06     132.904E+06    -127.477E+06     9.68286E+06     361.911E+03    -3.71433E+06    -352.651E+03    -196.600E+03
           70967     943.684E-06    -935.296E-06     11.6734E-06     125.000E-06     132.235E+06    -125.348E+06     11.8241E+06     26.3915E+03    -6.90356E+06    -298.787E+03     1.38477E+06
           70968        No Value        No Value        No Value        No Value     82.8562E+06    -79.4842E+06     3.51691E+06     974.741E+03    -6.88087E+06     734.697E+03     3.50457E+06
           71119     766.815E-06    -755.342E-06     42.8808E-06     125.000E-06     107.966E+06    -108.875E+06    -1.85094E+06     2.97339E+03    -329.377E+03     222.933E+03     2.92944E+03
           71120        No Value        No Value        No Value        No Value     73.1388E+06    -72.4641E+06    -1.44155E+06     18.5609E+03    -450.554E+03     8.13644E+06     104.509E+03
           71121     786.559E-06    -775.386E-06     42.7339E-06     125.000E-06     115.422E+06    -116.533E+06    -2.26673E+06     2.09214E+03    -558.990E+03     205.394E+03     6.26569E+03
           71122        No Value        No Value        No Value        No Value     77.6983E+06    -77.4155E+06    -1.89399E+06      35.493E+03    -648.615E+03     7.80430E+06     188.274E+03
           71123     806.306E-06    -795.424E-06     42.4893E-06     125.000E-06     121.857E+06    -122.995E+06    -2.33043E+06         580.357    -894.228E+03     178.001E+03     8.56925E+03
           71124        No Value        No Value        No Value        No Value     81.5440E+06    -81.5533E+06    -2.10622E+06     41.9531E+03    -932.721E+03     7.29121E+06     257.720E+03
           71125     826.055E-06    -815.454E-06     42.1471E-06     125.000E-06     126.940E+06    -127.965E+06    -2.11400E+06        -717.323    -1.26696E+06     145.375E+03     10.4635E+03
           71126        No Value        No Value        No Value        No Value     84.4790E+06    -84.6874E+06    -2.13906E+06     46.4935E+03    -1.25296E+06     6.63951E+06     324.898E+03
           71127     845.800E-06    -835.472E-06     41.7075E-06     125.000E-06     130.597E+06    -131.366E+06    -1.61335E+06         514.400    -1.61960E+06     109.559E+03     10.7803E+03
           71128        No Value        No Value        No Value        No Value     86.4424E+06    -86.7569E+06    -2.00856E+06     53.9578E+03    -1.57477E+06     5.85997E+06     403.383E+03
           71129     865.540E-06    -855.476E-06     41.1711E-06     125.000E-06     132.886E+06    -133.223E+06    -754.352E+03    -6.32589E+03    -1.91497E+06     68.2953E+03     14.3285E+03
           71130        No Value        No Value        No Value        No Value     87.4297E+06    -87.7523E+06    -1.70108E+06     64.3507E+03    -1.88600E+06     4.92109E+06     513.141E+03
           71131     885.271E-06    -875.463E-06     40.5382E-06     125.000E-06     134.020E+06    -133.588E+06     755.247E+03     6.29248E+03    -2.09318E+06     20.2438E+03     13.4318E+03
           71132        No Value        No Value        No Value        No Value     87.5337E+06    -87.6895E+06    -1.06374E+06     78.0037E+03    -2.14769E+06     3.77178E+06     684.752E+03
           71133     904.990E-06    -895.431E-06     39.8094E-06     125.000E-06     134.053E+06    -132.344E+06     3.24633E+06     17.4289E+03    -2.07908E+06    -24.5906E+03         916.977
           71134        No Value        No Value        No Value        No Value     86.7113E+06    -86.3819E+06     125.730E+03     142.887E+03    -2.28607E+06     2.27586E+06     924.501E+03
           71135     924.693E-06    -915.376E-06     38.9853E-06     125.000E-06     133.464E+06    -129.515E+06     7.44149E+06     74.4686E+03    -1.80539E+06    -186.038E+03     95.5370E+03
           71136        No Value        No Value        No Value        No Value     85.5034E+06    -84.1285E+06     2.37993E+06     106.585E+03    -2.18313E+06     387.632E+03     1.10450E+06
           71137     944.379E-06    -935.296E-06     38.0666E-06     125.000E-06     133.121E+06    -125.912E+06     13.3444E+06    -77.5342E+03    -2.41094E+06    -56.3013E+03    -336.698E+03
           71138        No Value        No Value        No Value        No Value     84.8399E+06    -81.6099E+06     5.93670E+06    -155.449E+03    -2.34848E+06    -1.40001E+06     1.54941E+06


  Minimum            503.751E-06    -935.296E-06    -27.9164E-06     125.000E-06     33.5887E+06    -173.570E+06    -89.3443E+06    -22.2367E+06    -79.9350E+06    -3.52438E+06    -41.9814E+06
         At Node               3           71137              43           71137           69220              42              26            1547              29            1548            1547

  Maximum            952.585E-06    -485.296E-06     130.443E-06     125.000E-06     195.630E+06    -19.2833E+06     20.7009E+06     15.6724E+06     79.9387E+06     48.7356E+06     42.0480E+06
         At Node              42               3              42           71137              42            7611            1519            7627              26            1547            1595

           Total     250.895E-03    -246.945E-03     16.1479E-03     39.3750E-03     69.7579E+09    -67.2231E+09    -4.07219E+09    -136.348E+06     1.42027E+06     3.75341E+09    -162.256E+03


